*SPEF "ieee 1481-1999"
*DESIGN "top_module"
*DATE "12:30:53 Sunday May 25, 2025"
*VENDOR "The OpenROAD Project"
*PROGRAM "OpenROAD"
*VERSION "b16bda7e82721d10566ff7e2b68f1ff0be9f9e38"
*DESIGN_FLOW "NAME_SCOPE LOCAL" "PIN_CAP NONE"
*DIVIDER /
*DELIMITER :
*BUS_DELIMITER []
*T_UNIT 1 NS
*C_UNIT 1 PF
*R_UNIT 1 OHM
*L_UNIT 1 HENRY

*NAME_MAP
*1 BTNR
*2 BTNU
*3 CLK100MHZ
*6 net10
*7 net11
*8 net12
*9 net13
*10 seg[0]
*11 seg[1]
*12 seg[2]
*13 seg[3]
*14 seg[4]
*15 seg[5]
*16 seg[6]
*17 _000_
*18 _001_
*19 _002_
*20 _003_
*21 _004_
*22 _005_
*23 _006_
*24 _007_
*25 _008_
*26 _009_
*27 _010_
*28 _011_
*29 _012_
*30 _013_
*31 _014_
*32 _015_
*33 _016_
*34 _017_
*35 _018_
*36 _019_
*37 _020_
*38 _021_
*39 _022_
*40 _023_
*41 _024_
*42 _025_
*43 _026_
*44 _027_
*45 _028_
*46 _029_
*47 _030_
*48 _031_
*49 _032_
*50 _033_
*51 _034_
*52 _035_
*53 _036_
*54 _037_
*55 _038_
*56 _039_
*57 _040_
*58 _041_
*59 _042_
*60 _043_
*61 _044_
*62 _045_
*63 _046_
*64 _047_
*65 _048_
*66 _049_
*67 _050_
*68 _051_
*69 _052_
*70 _053_
*71 _054_
*72 _055_
*73 _056_
*74 _057_
*75 _058_
*76 _059_
*77 _060_
*78 _061_
*79 _062_
*80 _063_
*81 _064_
*82 _065_
*83 _066_
*84 _067_
*85 _068_
*86 _069_
*87 _070_
*88 _071_
*89 _072_
*90 _073_
*91 _074_
*92 _075_
*93 _076_
*94 _077_
*95 _078_
*96 _079_
*97 _080_
*98 _081_
*99 _082_
*100 _083_
*101 _084_
*102 _085_
*103 _086_
*104 _087_
*105 _088_
*106 _089_
*107 _090_
*108 _091_
*109 _092_
*110 _093_
*111 _094_
*112 _095_
*113 _096_
*114 _097_
*115 _098_
*116 _099_
*117 _100_
*118 _101_
*119 _102_
*120 _103_
*121 _104_
*122 _105_
*123 _106_
*124 _107_
*125 _108_
*126 _109_
*127 _110_
*128 _111_
*129 _112_
*130 _113_
*131 _114_
*132 _115_
*133 _116_
*134 _117_
*135 _118_
*136 _119_
*137 _120_
*138 _121_
*139 _122_
*140 _123_
*141 _124_
*142 _125_
*143 _126_
*144 _127_
*145 _128_
*146 _129_
*147 _130_
*148 _131_
*149 _132_
*150 _133_
*151 _134_
*152 _135_
*153 _136_
*154 _137_
*155 _138_
*156 _139_
*157 _140_
*158 _141_
*159 _142_
*160 _143_
*161 _144_
*162 _145_
*163 _146_
*164 _147_
*165 _148_
*166 _149_
*167 _150_
*168 _151_
*169 _152_
*170 _153_
*171 _154_
*172 _155_
*173 _156_
*174 _157_
*175 _158_
*176 _159_
*177 _160_
*178 _161_
*179 _162_
*180 _163_
*181 _164_
*182 _165_
*183 _166_
*184 _167_
*185 _168_
*186 _169_
*187 _170_
*188 _171_
*189 _172_
*190 _173_
*191 _174_
*192 _175_
*193 _176_
*194 _177_
*195 _178_
*196 _179_
*197 _180_
*198 _181_
*199 _182_
*200 _183_
*201 _184_
*202 _185_
*203 _186_
*204 _187_
*205 _188_
*206 _189_
*207 _190_
*208 _191_
*209 _192_
*210 _193_
*211 _194_
*212 _195_
*213 _196_
*214 _197_
*215 _198_
*216 _199_
*217 _200_
*218 _201_
*219 _202_
*220 _203_
*221 _204_
*222 _205_
*223 _206_
*224 _207_
*225 _208_
*226 _209_
*227 _210_
*228 _211_
*229 _212_
*230 _213_
*231 _214_
*232 clknet_0_CLK100MHZ
*233 clknet_1_0__leaf_CLK100MHZ
*234 clknet_1_1__leaf_CLK100MHZ
*235 imem\.address\[0\]
*236 imem\.address\[1\]
*237 imem\.address\[2\]
*238 net1
*239 net2
*240 net3
*241 net4
*242 net5
*243 net6
*244 net7
*245 net8
*246 net9
*247 rf\.regs\[0\]\[0\]
*248 rf\.regs\[0\]\[1\]
*249 rf\.regs\[0\]\[2\]
*250 rf\.regs\[0\]\[3\]
*251 rf\.regs\[0\]\[4\]
*252 rf\.regs\[10\]\[0\]
*253 rf\.regs\[10\]\[1\]
*254 rf\.regs\[10\]\[2\]
*255 rf\.regs\[10\]\[3\]
*256 rf\.regs\[10\]\[4\]
*257 rf\.regs\[15\]\[0\]
*258 rf\.regs\[15\]\[1\]
*259 rf\.regs\[15\]\[2\]
*260 rf\.regs\[15\]\[3\]
*261 rf\.regs\[15\]\[4\]
*262 rf\.regs\[25\]\[0\]
*263 rf\.regs\[25\]\[1\]
*264 rf\.regs\[25\]\[2\]
*265 rf\.regs\[25\]\[3\]
*266 rf\.regs\[25\]\[4\]
*267 rf\.regs\[5\]\[0\]
*268 rf\.regs\[5\]\[1\]
*269 rf\.regs\[5\]\[2\]
*270 rf\.regs\[5\]\[3\]
*271 rf\.regs\[5\]\[4\]
*272 ANTENNA_1
*273 ANTENNA_2
*274 ANTENNA_3
*275 ANTENNA_4
*276 ANTENNA_5
*277 ANTENNA_6
*278 FILLER_0_0_109
*279 FILLER_0_0_113
*280 FILLER_0_0_119
*281 FILLER_0_0_123
*282 FILLER_0_0_135
*283 FILLER_0_0_139
*284 FILLER_0_0_141
*285 FILLER_0_0_15
*286 FILLER_0_0_152
*287 FILLER_0_0_164
*288 FILLER_0_0_176
*289 FILLER_0_0_184
*290 FILLER_0_0_27
*291 FILLER_0_0_29
*292 FILLER_0_0_3
*293 FILLER_0_0_46
*294 FILLER_0_0_54
*295 FILLER_0_0_57
*296 FILLER_0_0_69
*297 FILLER_0_0_81
*298 FILLER_0_0_85
*299 FILLER_0_0_97
*300 FILLER_0_10_105
*301 FILLER_0_10_117
*302 FILLER_0_10_128
*303 FILLER_0_10_13
*304 FILLER_0_10_160
*305 FILLER_0_10_168
*306 FILLER_0_10_178
*307 FILLER_0_10_25
*308 FILLER_0_10_3
*309 FILLER_0_10_41
*310 FILLER_0_10_51
*311 FILLER_0_10_59
*312 FILLER_0_10_67
*313 FILLER_0_10_7
*314 FILLER_0_10_79
*315 FILLER_0_10_83
*316 FILLER_0_10_85
*317 FILLER_0_10_97
*318 FILLER_0_11_103
*319 FILLER_0_11_11
*320 FILLER_0_11_113
*321 FILLER_0_11_118
*322 FILLER_0_11_137
*323 FILLER_0_11_159
*324 FILLER_0_11_167
*325 FILLER_0_11_169
*326 FILLER_0_11_189
*327 FILLER_0_11_19
*328 FILLER_0_11_3
*329 FILLER_0_11_31
*330 FILLER_0_11_38
*331 FILLER_0_11_50
*332 FILLER_0_11_54
*333 FILLER_0_11_62
*334 FILLER_0_11_74
*335 FILLER_0_11_91
*336 FILLER_0_12_103
*337 FILLER_0_12_132
*338 FILLER_0_12_15
*339 FILLER_0_12_154
*340 FILLER_0_12_166
*341 FILLER_0_12_178
*342 FILLER_0_12_182
*343 FILLER_0_12_27
*344 FILLER_0_12_29
*345 FILLER_0_12_3
*346 FILLER_0_12_33
*347 FILLER_0_12_50
*348 FILLER_0_12_62
*349 FILLER_0_12_66
*350 FILLER_0_12_79
*351 FILLER_0_12_83
*352 FILLER_0_13_111
*353 FILLER_0_13_137
*354 FILLER_0_13_14
*355 FILLER_0_13_149
*356 FILLER_0_13_161
*357 FILLER_0_13_167
*358 FILLER_0_13_169
*359 FILLER_0_13_183
*360 FILLER_0_13_189
*361 FILLER_0_13_26
*362 FILLER_0_13_3
*363 FILLER_0_13_38
*364 FILLER_0_13_44
*365 FILLER_0_13_48
*366 FILLER_0_13_57
*367 FILLER_0_13_69
*368 FILLER_0_13_77
*369 FILLER_0_13_94
*370 FILLER_0_14_111
*371 FILLER_0_14_124
*372 FILLER_0_14_128
*373 FILLER_0_14_132
*374 FILLER_0_14_139
*375 FILLER_0_14_141
*376 FILLER_0_14_15
*377 FILLER_0_14_153
*378 FILLER_0_14_165
*379 FILLER_0_14_179
*380 FILLER_0_14_26
*381 FILLER_0_14_36
*382 FILLER_0_14_40
*383 FILLER_0_14_48
*384 FILLER_0_14_54
*385 FILLER_0_14_58
*386 FILLER_0_14_7
*387 FILLER_0_14_80
*388 FILLER_0_14_85
*389 FILLER_0_15_100
*390 FILLER_0_15_113
*391 FILLER_0_15_132
*392 FILLER_0_15_144
*393 FILLER_0_15_148
*394 FILLER_0_15_156
*395 FILLER_0_15_169
*396 FILLER_0_15_187
*397 FILLER_0_15_3
*398 FILLER_0_15_57
*399 FILLER_0_15_65
*400 FILLER_0_15_7
*401 FILLER_0_15_82
*402 FILLER_0_15_94
*403 FILLER_0_16_101
*404 FILLER_0_16_113
*405 FILLER_0_16_117
*406 FILLER_0_16_134
*407 FILLER_0_16_141
*408 FILLER_0_16_15
*409 FILLER_0_16_162
*410 FILLER_0_16_167
*411 FILLER_0_16_179
*412 FILLER_0_16_187
*413 FILLER_0_16_27
*414 FILLER_0_16_29
*415 FILLER_0_16_41
*416 FILLER_0_16_65
*417 FILLER_0_16_85
*418 FILLER_0_16_91
*419 FILLER_0_17_101
*420 FILLER_0_17_107
*421 FILLER_0_17_111
*422 FILLER_0_17_123
*423 FILLER_0_17_135
*424 FILLER_0_17_147
*425 FILLER_0_17_15
*426 FILLER_0_17_151
*427 FILLER_0_17_181
*428 FILLER_0_17_3
*429 FILLER_0_17_39
*430 FILLER_0_17_48
*431 FILLER_0_17_57
*432 FILLER_0_17_69
*433 FILLER_0_17_81
*434 FILLER_0_17_89
*435 FILLER_0_18_117
*436 FILLER_0_18_127
*437 FILLER_0_18_139
*438 FILLER_0_18_141
*439 FILLER_0_18_15
*440 FILLER_0_18_153
*441 FILLER_0_18_160
*442 FILLER_0_18_179
*443 FILLER_0_18_19
*444 FILLER_0_18_24
*445 FILLER_0_18_29
*446 FILLER_0_18_3
*447 FILLER_0_18_41
*448 FILLER_0_18_53
*449 FILLER_0_18_65
*450 FILLER_0_18_77
*451 FILLER_0_18_83
*452 FILLER_0_18_85
*453 FILLER_0_19_105
*454 FILLER_0_19_111
*455 FILLER_0_19_121
*456 FILLER_0_19_132
*457 FILLER_0_19_144
*458 FILLER_0_19_15
*459 FILLER_0_19_156
*460 FILLER_0_19_169
*461 FILLER_0_19_177
*462 FILLER_0_19_186
*463 FILLER_0_19_27
*464 FILLER_0_19_3
*465 FILLER_0_19_34
*466 FILLER_0_19_46
*467 FILLER_0_19_55
*468 FILLER_0_19_57
*469 FILLER_0_19_88
*470 FILLER_0_1_111
*471 FILLER_0_1_125
*472 FILLER_0_1_145
*473 FILLER_0_1_15
*474 FILLER_0_1_150
*475 FILLER_0_1_162
*476 FILLER_0_1_169
*477 FILLER_0_1_175
*478 FILLER_0_1_179
*479 FILLER_0_1_187
*480 FILLER_0_1_27
*481 FILLER_0_1_3
*482 FILLER_0_1_35
*483 FILLER_0_1_42
*484 FILLER_0_1_48
*485 FILLER_0_1_57
*486 FILLER_0_1_69
*487 FILLER_0_1_81
*488 FILLER_0_1_89
*489 FILLER_0_20_101
*490 FILLER_0_20_115
*491 FILLER_0_20_129
*492 FILLER_0_20_137
*493 FILLER_0_20_145
*494 FILLER_0_20_157
*495 FILLER_0_20_168
*496 FILLER_0_20_180
*497 FILLER_0_20_186
*498 FILLER_0_20_19
*499 FILLER_0_20_27
*500 FILLER_0_20_29
*501 FILLER_0_20_41
*502 FILLER_0_20_45
*503 FILLER_0_20_7
*504 FILLER_0_20_82
*505 FILLER_0_21_109
*506 FILLER_0_21_120
*507 FILLER_0_21_132
*508 FILLER_0_21_144
*509 FILLER_0_21_15
*510 FILLER_0_21_156
*511 FILLER_0_21_166
*512 FILLER_0_21_169
*513 FILLER_0_21_185
*514 FILLER_0_21_189
*515 FILLER_0_21_3
*516 FILLER_0_21_33
*517 FILLER_0_21_45
*518 FILLER_0_21_53
*519 FILLER_0_21_57
*520 FILLER_0_21_80
*521 FILLER_0_21_84
*522 FILLER_0_21_88
*523 FILLER_0_21_92
*524 FILLER_0_22_108
*525 FILLER_0_22_120
*526 FILLER_0_22_129
*527 FILLER_0_22_13
*528 FILLER_0_22_141
*529 FILLER_0_22_153
*530 FILLER_0_22_165
*531 FILLER_0_22_17
*532 FILLER_0_22_177
*533 FILLER_0_22_189
*534 FILLER_0_22_25
*535 FILLER_0_22_29
*536 FILLER_0_22_3
*537 FILLER_0_22_41
*538 FILLER_0_22_53
*539 FILLER_0_22_65
*540 FILLER_0_22_77
*541 FILLER_0_22_83
*542 FILLER_0_22_85
*543 FILLER_0_22_97
*544 FILLER_0_23_111
*545 FILLER_0_23_117
*546 FILLER_0_23_125
*547 FILLER_0_23_148
*548 FILLER_0_23_160
*549 FILLER_0_23_169
*550 FILLER_0_23_176
*551 FILLER_0_23_184
*552 FILLER_0_23_19
*553 FILLER_0_23_31
*554 FILLER_0_23_43
*555 FILLER_0_23_57
*556 FILLER_0_23_69
*557 FILLER_0_23_7
*558 FILLER_0_23_81
*559 FILLER_0_23_92
*560 FILLER_0_24_103
*561 FILLER_0_24_120
*562 FILLER_0_24_132
*563 FILLER_0_24_141
*564 FILLER_0_24_152
*565 FILLER_0_24_165
*566 FILLER_0_24_177
*567 FILLER_0_24_18
*568 FILLER_0_24_189
*569 FILLER_0_24_26
*570 FILLER_0_24_29
*571 FILLER_0_24_41
*572 FILLER_0_24_48
*573 FILLER_0_24_6
*574 FILLER_0_24_60
*575 FILLER_0_24_72
*576 FILLER_0_24_85
*577 FILLER_0_24_97
*578 FILLER_0_25_105
*579 FILLER_0_25_111
*580 FILLER_0_25_138
*581 FILLER_0_25_150
*582 FILLER_0_25_156
*583 FILLER_0_25_162
*584 FILLER_0_25_169
*585 FILLER_0_25_181
*586 FILLER_0_25_189
*587 FILLER_0_25_19
*588 FILLER_0_25_3
*589 FILLER_0_25_31
*590 FILLER_0_25_39
*591 FILLER_0_25_44
*592 FILLER_0_25_57
*593 FILLER_0_25_69
*594 FILLER_0_25_81
*595 FILLER_0_25_93
*596 FILLER_0_26_106
*597 FILLER_0_26_114
*598 FILLER_0_26_121
*599 FILLER_0_26_133
*600 FILLER_0_26_139
*601 FILLER_0_26_141
*602 FILLER_0_26_149
*603 FILLER_0_26_163
*604 FILLER_0_26_173
*605 FILLER_0_26_181
*606 FILLER_0_26_19
*607 FILLER_0_26_27
*608 FILLER_0_26_29
*609 FILLER_0_26_35
*610 FILLER_0_26_7
*611 FILLER_0_26_70
*612 FILLER_0_26_78
*613 FILLER_0_26_91
*614 FILLER_0_26_99
*615 FILLER_0_27_106
*616 FILLER_0_27_113
*617 FILLER_0_27_125
*618 FILLER_0_27_137
*619 FILLER_0_27_141
*620 FILLER_0_27_145
*621 FILLER_0_27_15
*622 FILLER_0_27_153
*623 FILLER_0_27_165
*624 FILLER_0_27_169
*625 FILLER_0_27_181
*626 FILLER_0_27_27
*627 FILLER_0_27_3
*628 FILLER_0_27_36
*629 FILLER_0_27_48
*630 FILLER_0_27_57
*631 FILLER_0_27_69
*632 FILLER_0_27_81
*633 FILLER_0_27_85
*634 FILLER_0_27_94
*635 FILLER_0_2_102
*636 FILLER_0_2_129
*637 FILLER_0_2_137
*638 FILLER_0_2_141
*639 FILLER_0_2_153
*640 FILLER_0_2_159
*641 FILLER_0_2_164
*642 FILLER_0_2_176
*643 FILLER_0_2_180
*644 FILLER_0_2_20
*645 FILLER_0_2_29
*646 FILLER_0_2_3
*647 FILLER_0_2_41
*648 FILLER_0_2_53
*649 FILLER_0_2_65
*650 FILLER_0_2_77
*651 FILLER_0_2_83
*652 FILLER_0_2_85
*653 FILLER_0_2_96
*654 FILLER_0_3_10
*655 FILLER_0_3_102
*656 FILLER_0_3_111
*657 FILLER_0_3_133
*658 FILLER_0_3_145
*659 FILLER_0_3_157
*660 FILLER_0_3_165
*661 FILLER_0_3_18
*662 FILLER_0_3_188
*663 FILLER_0_3_3
*664 FILLER_0_3_30
*665 FILLER_0_3_41
*666 FILLER_0_3_49
*667 FILLER_0_3_55
*668 FILLER_0_3_57
*669 FILLER_0_3_62
*670 FILLER_0_3_7
*671 FILLER_0_3_74
*672 FILLER_0_3_86
*673 FILLER_0_3_98
*674 FILLER_0_4_105
*675 FILLER_0_4_126
*676 FILLER_0_4_138
*677 FILLER_0_4_141
*678 FILLER_0_4_15
*679 FILLER_0_4_153
*680 FILLER_0_4_165
*681 FILLER_0_4_177
*682 FILLER_0_4_189
*683 FILLER_0_4_21
*684 FILLER_0_4_27
*685 FILLER_0_4_29
*686 FILLER_0_4_41
*687 FILLER_0_4_53
*688 FILLER_0_4_69
*689 FILLER_0_4_81
*690 FILLER_0_4_85
*691 FILLER_0_4_97
*692 FILLER_0_5_109
*693 FILLER_0_5_11
*694 FILLER_0_5_113
*695 FILLER_0_5_125
*696 FILLER_0_5_137
*697 FILLER_0_5_141
*698 FILLER_0_5_159
*699 FILLER_0_5_167
*700 FILLER_0_5_177
*701 FILLER_0_5_185
*702 FILLER_0_5_3
*703 FILLER_0_5_36
*704 FILLER_0_5_42
*705 FILLER_0_5_46
*706 FILLER_0_5_50
*707 FILLER_0_5_73
*708 FILLER_0_5_85
*709 FILLER_0_5_97
*710 FILLER_0_6_109
*711 FILLER_0_6_121
*712 FILLER_0_6_130
*713 FILLER_0_6_138
*714 FILLER_0_6_141
*715 FILLER_0_6_145
*716 FILLER_0_6_149
*717 FILLER_0_6_154
*718 FILLER_0_6_166
*719 FILLER_0_6_172
*720 FILLER_0_6_184
*721 FILLER_0_6_19
*722 FILLER_0_6_39
*723 FILLER_0_6_48
*724 FILLER_0_6_54
*725 FILLER_0_6_58
*726 FILLER_0_6_70
*727 FILLER_0_6_82
*728 FILLER_0_6_85
*729 FILLER_0_6_97
*730 FILLER_0_7_104
*731 FILLER_0_7_113
*732 FILLER_0_7_125
*733 FILLER_0_7_137
*734 FILLER_0_7_149
*735 FILLER_0_7_161
*736 FILLER_0_7_167
*737 FILLER_0_7_175
*738 FILLER_0_7_19
*739 FILLER_0_7_3
*740 FILLER_0_7_38
*741 FILLER_0_7_50
*742 FILLER_0_7_57
*743 FILLER_0_7_68
*744 FILLER_0_7_80
*745 FILLER_0_7_9
*746 FILLER_0_7_92
*747 FILLER_0_8_101
*748 FILLER_0_8_107
*749 FILLER_0_8_119
*750 FILLER_0_8_131
*751 FILLER_0_8_136
*752 FILLER_0_8_141
*753 FILLER_0_8_147
*754 FILLER_0_8_15
*755 FILLER_0_8_158
*756 FILLER_0_8_168
*757 FILLER_0_8_180
*758 FILLER_0_8_27
*759 FILLER_0_8_3
*760 FILLER_0_8_36
*761 FILLER_0_8_41
*762 FILLER_0_8_53
*763 FILLER_0_8_65
*764 FILLER_0_8_73
*765 FILLER_0_8_81
*766 FILLER_0_8_85
*767 FILLER_0_8_97
*768 FILLER_0_9_103
*769 FILLER_0_9_111
*770 FILLER_0_9_113
*771 FILLER_0_9_121
*772 FILLER_0_9_126
*773 FILLER_0_9_159
*774 FILLER_0_9_167
*775 FILLER_0_9_169
*776 FILLER_0_9_181
*777 FILLER_0_9_189
*778 FILLER_0_9_19
*779 FILLER_0_9_31
*780 FILLER_0_9_35
*781 FILLER_0_9_39
*782 FILLER_0_9_49
*783 FILLER_0_9_55
*784 FILLER_0_9_57
*785 FILLER_0_9_69
*786 FILLER_0_9_81
*787 FILLER_0_9_93
*788 FILLER_0_9_99
*789 PHY_EDGE_ROW_0_Left_28
*790 PHY_EDGE_ROW_0_Right_0
*791 PHY_EDGE_ROW_10_Left_38
*792 PHY_EDGE_ROW_10_Right_10
*793 PHY_EDGE_ROW_11_Left_39
*794 PHY_EDGE_ROW_11_Right_11
*795 PHY_EDGE_ROW_12_Left_40
*796 PHY_EDGE_ROW_12_Right_12
*797 PHY_EDGE_ROW_13_Left_41
*798 PHY_EDGE_ROW_13_Right_13
*799 PHY_EDGE_ROW_14_Left_42
*800 PHY_EDGE_ROW_14_Right_14
*801 PHY_EDGE_ROW_15_Left_43
*802 PHY_EDGE_ROW_15_Right_15
*803 PHY_EDGE_ROW_16_Left_44
*804 PHY_EDGE_ROW_16_Right_16
*805 PHY_EDGE_ROW_17_Left_45
*806 PHY_EDGE_ROW_17_Right_17
*807 PHY_EDGE_ROW_18_Left_46
*808 PHY_EDGE_ROW_18_Right_18
*809 PHY_EDGE_ROW_19_Left_47
*810 PHY_EDGE_ROW_19_Right_19
*811 PHY_EDGE_ROW_1_Left_29
*812 PHY_EDGE_ROW_1_Right_1
*813 PHY_EDGE_ROW_20_Left_48
*814 PHY_EDGE_ROW_20_Right_20
*815 PHY_EDGE_ROW_21_Left_49
*816 PHY_EDGE_ROW_21_Right_21
*817 PHY_EDGE_ROW_22_Left_50
*818 PHY_EDGE_ROW_22_Right_22
*819 PHY_EDGE_ROW_23_Left_51
*820 PHY_EDGE_ROW_23_Right_23
*821 PHY_EDGE_ROW_24_Left_52
*822 PHY_EDGE_ROW_24_Right_24
*823 PHY_EDGE_ROW_25_Left_53
*824 PHY_EDGE_ROW_25_Right_25
*825 PHY_EDGE_ROW_26_Left_54
*826 PHY_EDGE_ROW_26_Right_26
*827 PHY_EDGE_ROW_27_Left_55
*828 PHY_EDGE_ROW_27_Right_27
*829 PHY_EDGE_ROW_2_Left_30
*830 PHY_EDGE_ROW_2_Right_2
*831 PHY_EDGE_ROW_3_Left_31
*832 PHY_EDGE_ROW_3_Right_3
*833 PHY_EDGE_ROW_4_Left_32
*834 PHY_EDGE_ROW_4_Right_4
*835 PHY_EDGE_ROW_5_Left_33
*836 PHY_EDGE_ROW_5_Right_5
*837 PHY_EDGE_ROW_6_Left_34
*838 PHY_EDGE_ROW_6_Right_6
*839 PHY_EDGE_ROW_7_Left_35
*840 PHY_EDGE_ROW_7_Right_7
*841 PHY_EDGE_ROW_8_Left_36
*842 PHY_EDGE_ROW_8_Right_8
*843 PHY_EDGE_ROW_9_Left_37
*844 PHY_EDGE_ROW_9_Right_9
*845 TAP_TAPCELL_ROW_0_56
*846 TAP_TAPCELL_ROW_0_57
*847 TAP_TAPCELL_ROW_0_58
*848 TAP_TAPCELL_ROW_0_59
*849 TAP_TAPCELL_ROW_0_60
*850 TAP_TAPCELL_ROW_0_61
*851 TAP_TAPCELL_ROW_10_89
*852 TAP_TAPCELL_ROW_10_90
*853 TAP_TAPCELL_ROW_10_91
*854 TAP_TAPCELL_ROW_11_92
*855 TAP_TAPCELL_ROW_11_93
*856 TAP_TAPCELL_ROW_11_94
*857 TAP_TAPCELL_ROW_12_95
*858 TAP_TAPCELL_ROW_12_96
*859 TAP_TAPCELL_ROW_12_97
*860 TAP_TAPCELL_ROW_13_100
*861 TAP_TAPCELL_ROW_13_98
*862 TAP_TAPCELL_ROW_13_99
*863 TAP_TAPCELL_ROW_14_101
*864 TAP_TAPCELL_ROW_14_102
*865 TAP_TAPCELL_ROW_14_103
*866 TAP_TAPCELL_ROW_15_104
*867 TAP_TAPCELL_ROW_15_105
*868 TAP_TAPCELL_ROW_15_106
*869 TAP_TAPCELL_ROW_16_107
*870 TAP_TAPCELL_ROW_16_108
*871 TAP_TAPCELL_ROW_16_109
*872 TAP_TAPCELL_ROW_17_110
*873 TAP_TAPCELL_ROW_17_111
*874 TAP_TAPCELL_ROW_17_112
*875 TAP_TAPCELL_ROW_18_113
*876 TAP_TAPCELL_ROW_18_114
*877 TAP_TAPCELL_ROW_18_115
*878 TAP_TAPCELL_ROW_19_116
*879 TAP_TAPCELL_ROW_19_117
*880 TAP_TAPCELL_ROW_19_118
*881 TAP_TAPCELL_ROW_1_62
*882 TAP_TAPCELL_ROW_1_63
*883 TAP_TAPCELL_ROW_1_64
*884 TAP_TAPCELL_ROW_20_119
*885 TAP_TAPCELL_ROW_20_120
*886 TAP_TAPCELL_ROW_20_121
*887 TAP_TAPCELL_ROW_21_122
*888 TAP_TAPCELL_ROW_21_123
*889 TAP_TAPCELL_ROW_21_124
*890 TAP_TAPCELL_ROW_22_125
*891 TAP_TAPCELL_ROW_22_126
*892 TAP_TAPCELL_ROW_22_127
*893 TAP_TAPCELL_ROW_23_128
*894 TAP_TAPCELL_ROW_23_129
*895 TAP_TAPCELL_ROW_23_130
*896 TAP_TAPCELL_ROW_24_131
*897 TAP_TAPCELL_ROW_24_132
*898 TAP_TAPCELL_ROW_24_133
*899 TAP_TAPCELL_ROW_25_134
*900 TAP_TAPCELL_ROW_25_135
*901 TAP_TAPCELL_ROW_25_136
*902 TAP_TAPCELL_ROW_26_137
*903 TAP_TAPCELL_ROW_26_138
*904 TAP_TAPCELL_ROW_26_139
*905 TAP_TAPCELL_ROW_27_140
*906 TAP_TAPCELL_ROW_27_141
*907 TAP_TAPCELL_ROW_27_142
*908 TAP_TAPCELL_ROW_27_143
*909 TAP_TAPCELL_ROW_27_144
*910 TAP_TAPCELL_ROW_27_145
*911 TAP_TAPCELL_ROW_2_65
*912 TAP_TAPCELL_ROW_2_66
*913 TAP_TAPCELL_ROW_2_67
*914 TAP_TAPCELL_ROW_3_68
*915 TAP_TAPCELL_ROW_3_69
*916 TAP_TAPCELL_ROW_3_70
*917 TAP_TAPCELL_ROW_4_71
*918 TAP_TAPCELL_ROW_4_72
*919 TAP_TAPCELL_ROW_4_73
*920 TAP_TAPCELL_ROW_5_74
*921 TAP_TAPCELL_ROW_5_75
*922 TAP_TAPCELL_ROW_5_76
*923 TAP_TAPCELL_ROW_6_77
*924 TAP_TAPCELL_ROW_6_78
*925 TAP_TAPCELL_ROW_6_79
*926 TAP_TAPCELL_ROW_7_80
*927 TAP_TAPCELL_ROW_7_81
*928 TAP_TAPCELL_ROW_7_82
*929 TAP_TAPCELL_ROW_8_83
*930 TAP_TAPCELL_ROW_8_84
*931 TAP_TAPCELL_ROW_8_85
*932 TAP_TAPCELL_ROW_9_86
*933 TAP_TAPCELL_ROW_9_87
*934 TAP_TAPCELL_ROW_9_88
*935 _215_
*936 _216_
*937 _217_
*938 _218_
*939 _219_
*940 _220_
*941 _221_
*942 _222_
*943 _223_
*944 _224_
*945 _225_
*946 _226_
*947 _227_
*948 _228_
*949 _229_
*950 _230_
*951 _231_
*952 _232_
*953 _233_
*954 _234_
*955 _235_
*956 _236_
*957 _237_
*958 _238_
*959 _239_
*960 _240_
*961 _241_
*962 _242_
*963 _243_
*964 _244_
*965 _245_
*966 _246_
*967 _247_
*968 _248_
*969 _249_
*970 _250_
*971 _251_
*972 _252_
*973 _253_
*974 _254_
*975 _255_
*976 _256_
*977 _257_
*978 _258_
*979 _259_
*980 _260_
*981 _261_
*982 _262_
*983 _263_
*984 _264_
*985 _265_
*986 _266_
*987 _267_
*988 _268_
*989 _269_
*990 _270_
*991 _271_
*992 _272_
*993 _273_
*994 _274_
*995 _275_
*996 _276_
*997 _277_
*998 _278_
*999 _279_
*1000 _280_
*1001 _281_
*1002 _282_
*1003 _283_
*1004 _284_
*1005 _285_
*1006 _286_
*1007 _287_
*1008 _288_
*1009 _289_
*1010 _290_
*1011 _291_
*1012 _292_
*1013 _293_
*1014 _294_
*1015 _295_
*1016 _296_
*1017 _297_
*1018 _298_
*1019 _299_
*1020 _300_
*1021 _301_
*1022 _302_
*1023 _303_
*1024 _304_
*1025 _305_
*1026 _306_
*1027 _307_
*1028 _308_
*1029 _309_
*1030 _310_
*1031 _311_
*1032 _312_
*1033 _313_
*1034 _314_
*1035 _315_
*1036 _316_
*1037 _317_
*1038 _318_
*1039 _319_
*1040 _320_
*1041 _321_
*1042 _322_
*1043 _323_
*1044 _324_
*1045 _325_
*1046 _326_
*1047 _327_
*1048 _328_
*1049 _329_
*1050 _330_
*1051 _331_
*1052 _332_
*1053 _333_
*1054 _334_
*1055 _335_
*1056 _336_
*1057 _337_
*1058 _338_
*1059 _339_
*1060 _340_
*1061 _341_
*1062 _342_
*1063 _343_
*1064 _344_
*1065 _345_
*1066 _346_
*1067 _347_
*1068 _348_
*1069 _349_
*1070 _350_
*1071 _351_
*1072 _352_
*1073 _353_
*1074 _354_
*1075 _355_
*1076 _356_
*1077 _357_
*1078 _358_
*1079 _359_
*1080 _360_
*1081 _361_
*1082 _362_
*1083 _363_
*1084 _364_
*1085 _365_
*1086 _366_
*1087 _367_
*1088 _368_
*1089 _369_
*1090 _370_
*1091 _371_
*1092 _372_
*1093 _373_
*1094 _374_
*1095 _375_
*1096 _376_
*1097 _377_
*1098 _378_
*1099 _379_
*1100 _380_
*1101 _381_
*1102 _382_
*1103 _383_
*1104 _384_
*1105 _385_
*1106 _386_
*1107 _387_
*1108 _388_
*1109 _389_
*1110 _390_
*1111 _391_
*1112 _392_
*1113 _393_
*1114 _394_
*1115 _395_
*1116 _396_
*1117 _397_
*1118 _398_
*1119 _399_
*1120 _400_
*1121 _401_
*1122 _402_
*1123 _403_
*1124 _404_
*1125 _405_
*1126 _406_
*1127 _407_
*1128 _408_
*1129 _409_
*1130 _410_
*1131 _411_
*1132 _412_
*1133 _413_
*1134 _414_
*1135 _415_
*1136 _416_
*1137 _417_
*1138 _418_
*1139 _419_
*1140 _420_
*1141 _421_
*1142 _422_
*1143 _423_
*1144 _424_
*1145 _425_
*1146 _426_
*1147 _427_
*1148 _428_
*1149 _429_
*1150 _430_
*1151 _431_
*1152 _432_
*1153 _433_
*1154 _434_
*1155 _435_
*1156 _436_
*1157 _437_
*1158 _438_
*1159 _439_
*1160 _440_
*1161 _441_
*1162 _442_
*1163 _443_
*1164 _444_
*1165 _445_
*1166 _446_
*1167 _447_
*1168 _448_
*1169 _449_
*1170 _450_
*1171 _451_
*1172 _452_
*1173 _453_
*1174 _454_
*1175 _455_
*1176 _456_
*1177 _457_
*1178 _458_
*1179 _459_
*1180 _460_
*1181 _461_
*1182 _462_
*1183 _463_
*1184 _464_
*1185 clkbuf_0_CLK100MHZ
*1186 clkbuf_1_0__f_CLK100MHZ
*1187 clkbuf_1_1__f_CLK100MHZ
*1188 clkload0
*1189 input1
*1190 input2
*1191 output3
*1192 output4
*1193 output5
*1194 output6
*1195 output7
*1196 output8
*1197 output9
*1198 top_module_10
*1199 top_module_11
*1200 top_module_12
*1201 top_module_13

*PORTS
BTNR I
BTNU I
CLK100MHZ I
an[0] O
an[1] O
an[2] O
an[3] O
seg[0] O
seg[1] O
seg[2] O
seg[3] O
seg[4] O
seg[5] O
seg[6] O

*D_NET *1 0.000913092
*CONN
*P BTNR I
*I *1189:A I *D sky130_fd_sc_hd__clkbuf_2
*CAP
1 BTNR 0.000392023
2 *1189:A 0
3 *1:17 0.000392023
4 *1:17 *147:10 2.11157e-05
5 *1:17 *152:42 8.25867e-05
6 *1:17 *168:55 2.5343e-05
*RES
1 BTNR *1:17 27.2827 
2 *1:17 *1189:A 23 
*END

*D_NET *2 0.00107444
*CONN
*P BTNU I
*I *1190:A I *D sky130_fd_sc_hd__buf_2
*CAP
1 BTNU 0.000487343
2 *1190:A 0.000487343
3 *1190:A *101:26 5.3304e-05
4 *1190:A *168:55 2.5343e-05
5 *1190:A *187:16 2.11066e-05
*RES
1 BTNU *1190:A 49.8062 
*END

*D_NET *3 0.0174682
*CONN
*P CLK100MHZ I
*I *1185:A I *D sky130_fd_sc_hd__clkbuf_16
*CAP
1 CLK100MHZ 0.00464588
2 *1185:A 0.000149057
3 *3:21 0.00479494
4 *1185:A *1186:A 0.000341365
5 *1185:A *210:26 0.00022034
6 *1185:A *236:39 6.08617e-05
7 *3:21 *64:30 6.65036e-05
8 *3:21 *90:60 0.000339209
9 *3:21 *95:12 0.000767293
10 *3:21 *103:26 2.05503e-05
11 *3:21 *147:28 0.00178439
12 *3:21 *163:18 0.000110198
13 *3:21 *187:30 0.000849653
14 *3:21 *203:22 0.00225425
15 *3:21 *204:28 0.000479826
16 *3:21 *210:14 2.54169e-06
17 *3:21 *212:30 0.000294952
18 *3:21 *265:53 0.000286398
*RES
1 CLK100MHZ *3:21 38.1344 
2 *3:21 *1185:A 41.9564 
*END

*D_NET *6 0.00161722
*CONN
*P an[0] O
*I *1198:LO O *D sky130_fd_sc_hd__conb_1
*CAP
1 an[0] 0.00038842
2 *1198:LO 0.000420191
3 *6:10 0.000808611
*RES
1 *1198:LO *6:10 46.0268 
2 *6:10 an[0] 9.4448 
*END

*D_NET *7 0.000911621
*CONN
*P an[1] O
*I *1199:HI O *D sky130_fd_sc_hd__conb_1
*CAP
1 an[1] 0.000415107
2 *1199:HI 0.000415107
3 an[1] *136:10 1.05441e-05
4 an[1] *136:24 7.08633e-05
*RES
1 *1199:HI an[1] 47.4224 
*END

*D_NET *8 0.000605164
*CONN
*P an[2] O
*I *1200:HI O *D sky130_fd_sc_hd__conb_1
*CAP
1 an[2] 0.000302582
2 *1200:HI 0.000302582
3 an[2] *135:10 0
4 an[2] *224:12 0
*RES
1 *1200:HI an[2] 47.8691 
*END

*D_NET *9 0.000645301
*CONN
*P an[3] O
*I *1201:HI O *D sky130_fd_sc_hd__conb_1
*CAP
1 an[3] 0.000283454
2 *1201:HI 0.000283454
3 an[3] *106:37 5.57441e-05
4 an[3] *128:20 0
5 an[3] *166:28 2.26497e-05
*RES
1 *1201:HI an[3] 47.1648 
*END

*D_NET *10 0.000793856
*CONN
*P seg[0] O
*I *1191:X O *D sky130_fd_sc_hd__buf_1
*CAP
1 seg[0] 0.000354609
2 *1191:X 0.000354609
3 seg[0] *166:28 2.26497e-05
4 seg[0] *188:18 1.20476e-05
5 seg[0] *245:14 4.99403e-05
*RES
1 *1191:X seg[0] 47.1648 
*END

*D_NET *11 0.000777596
*CONN
*P seg[1] O
*I *1192:X O *D sky130_fd_sc_hd__buf_1
*CAP
1 seg[1] 0.000371102
2 *1192:X 0.000371102
3 seg[1] *166:28 2.26497e-05
4 seg[1] *188:18 1.27424e-05
*RES
1 *1192:X seg[1] 47.1648 
*END

*D_NET *12 0.00151075
*CONN
*P seg[2] O
*I *1193:X O *D sky130_fd_sc_hd__buf_1
*CAP
1 seg[2] 0.000581653
2 *1193:X 0.000581653
3 seg[2] *48:12 8.08999e-05
4 seg[2] *76:32 8.96587e-05
5 seg[2] *100:77 1.33995e-05
6 seg[2] *105:10 4.76405e-05
7 seg[2] *166:28 8.76002e-05
8 seg[2] *212:58 2.82449e-05
*RES
1 *1193:X seg[2] 48.0321 
*END

*D_NET *13 0.000997049
*CONN
*P seg[3] O
*I *1194:X O *D sky130_fd_sc_hd__buf_1
*CAP
1 seg[3] 0.000474849
2 *1194:X 0.000474849
3 seg[3] *106:10 2.47015e-05
4 seg[3] *166:28 0
5 seg[3] *180:39 2.26497e-05
6 seg[3] *212:58 0
*RES
1 *1194:X seg[3] 47.5083 
*END

*D_NET *14 0.000767615
*CONN
*P seg[4] O
*I *1195:X O *D sky130_fd_sc_hd__buf_1
*CAP
1 seg[4] 0.000263756
2 *1195:X 0.000263756
3 seg[4] *128:12 2.44846e-05
4 seg[4] *150:44 0.000205754
5 seg[4] *216:79 0
6 seg[4] *245:16 9.86551e-06
*RES
1 *1195:X seg[4] 47.1648 
*END

*D_NET *15 0.0006149
*CONN
*P seg[5] O
*I *1196:X O *D sky130_fd_sc_hd__buf_1
*CAP
1 seg[5] 0.000217764
2 *1196:X 0.000217764
3 seg[5] *128:12 2.47015e-05
4 seg[5] *166:16 7.87552e-05
5 seg[5] *216:79 7.59158e-05
*RES
1 *1196:X seg[5] 47.1648 
*END

*D_NET *16 0.000857237
*CONN
*P seg[6] O
*I *1197:X O *D sky130_fd_sc_hd__buf_1
*CAP
1 seg[6] 0.000428618
2 *1197:X 0.000428618
3 seg[6] *28:30 0
4 seg[6] *166:16 0
*RES
1 *1197:X seg[6] 49.9819 
*END

*D_NET *17 0.00471598
*CONN
*I *1182:RESET_B I *D sky130_fd_sc_hd__dfrtp_2
*I *1154:Y O *D sky130_fd_sc_hd__inv_2
*CAP
1 *1182:RESET_B 0.000559319
2 *1154:Y 0.000386049
3 *17:8 0.000945368
4 *1182:RESET_B *1080:A 1.32314e-05
5 *1182:RESET_B *81:142 0.000146398
6 *1182:RESET_B *206:28 0.00057038
7 *1182:RESET_B *235:10 6.39489e-05
8 *1182:RESET_B *250:68 0.000716596
9 *17:8 *76:38 3.22041e-05
10 *17:8 *105:10 0.000548881
11 *17:8 *144:18 1.78655e-05
12 *17:8 *189:14 0.000111106
13 *17:8 *195:12 8.4047e-05
14 *17:8 *260:26 0.000389257
15 *17:8 *260:36 2.02217e-05
16 *17:8 *260:40 0.000111106
*RES
1 *1154:Y *17:8 48.005 
2 *17:8 *1182:RESET_B 27.9361 
*END

*D_NET *18 0.00283541
*CONN
*I *1183:RESET_B I *D sky130_fd_sc_hd__dfrtp_4
*I *1155:Y O *D sky130_fd_sc_hd__inv_2
*CAP
1 *1183:RESET_B 0.000972714
2 *1155:Y 0
3 *18:6 0.000972714
4 *1183:RESET_B *20:16 2.69179e-05
5 *1183:RESET_B *46:24 4.88664e-05
6 *1183:RESET_B *93:22 0
7 *1183:RESET_B *94:28 9.85586e-06
8 *1183:RESET_B *119:56 2.11157e-05
9 *1183:RESET_B *120:12 0
10 *1183:RESET_B *138:57 0
11 *1183:RESET_B *162:14 0
12 *1183:RESET_B *233:41 0.000361476
13 *1183:RESET_B *233:47 0.000129215
14 *1183:RESET_B *233:117 0.000207491
15 *1183:RESET_B *252:54 8.5041e-05
16 *1183:RESET_B *265:10 0
*RES
1 *1155:Y *18:6 38 
2 *18:6 *1183:RESET_B 32.2446 
*END

*D_NET *19 0.011985
*CONN
*I *1184:RESET_B I *D sky130_fd_sc_hd__dfrtp_1
*I *1156:Y O *D sky130_fd_sc_hd__inv_2
*CAP
1 *1184:RESET_B 0.000924574
2 *1156:Y 0.000138498
3 *19:14 0.00210399
4 *19:8 0.00131792
5 *1184:RESET_B *1021:A1 0.000557021
6 *1184:RESET_B *109:100 0.000477613
7 *1184:RESET_B *160:6 0.000409021
8 *1184:RESET_B *233:147 5.03716e-05
9 *1184:RESET_B *237:14 0.000132736
10 *19:8 *220:6 0.000100486
11 *19:8 *238:22 3.34355e-05
12 *19:14 *42:10 0.00132431
13 *19:14 *57:72 0.00025313
14 *19:14 *133:12 0.000905362
15 *19:14 *133:21 9.94675e-05
16 *19:14 *140:10 0.000159354
17 *19:14 *214:10 0.000170807
18 *19:14 *219:26 2.31765e-05
19 *19:14 *221:43 0.000109432
20 *19:14 *239:37 0.000313802
21 *19:14 *250:25 0.000508572
22 *19:14 *265:22 0.00187191
*RES
1 *1156:Y *19:8 40.0507 
2 *19:8 *19:14 44.5771 
3 *19:14 *1184:RESET_B 34.6061 
*END

*D_NET *20 0.00661192
*CONN
*I *1157:D I *D sky130_fd_sc_hd__dfxtp_1
*I *1086:X O *D sky130_fd_sc_hd__clkbuf_1
*CAP
1 *1157:D 0
2 *1086:X 0
3 *20:16 0.00141376
4 *20:6 0.00141376
5 *20:16 *24:30 0.000463942
6 *20:16 *37:22 0.00113754
7 *20:16 *113:36 1.0092e-05
8 *20:16 *123:59 2.2065e-05
9 *20:16 *134:10 0.000108931
10 *20:16 *185:36 0.000260132
11 *20:16 *204:44 0.000127194
12 *20:16 *204:75 6.25045e-05
13 *20:16 *233:41 0.000464796
14 *20:16 *233:47 0.000609571
15 *20:16 *233:117 0.000239144
16 *20:16 *233:137 0.000126298
17 *20:16 *233:143 4.36552e-05
18 *20:16 *255:63 8.16097e-05
19 *1183:RESET_B *20:16 2.69179e-05
*RES
1 *1086:X *20:6 38 
2 *20:6 *20:16 46.408 
3 *20:16 *1157:D 23 
*END

*D_NET *21 0.0104945
*CONN
*I *1158:D I *D sky130_fd_sc_hd__dfxtp_1
*I *1088:X O *D sky130_fd_sc_hd__clkbuf_1
*CAP
1 *1158:D 0
2 *1088:X 0.000532584
3 *21:34 0.00213938
4 *21:18 0.00267197
5 *21:18 *40:22 5.69208e-05
6 *21:18 *83:42 9.57388e-05
7 *21:18 *84:67 2.30431e-05
8 *21:18 *100:63 0.000190215
9 *21:18 *141:34 4.82958e-05
10 *21:18 *156:18 3.33006e-05
11 *21:18 *157:12 0.000156626
12 *21:18 *227:53 9.38911e-05
13 *21:18 *247:18 2.16954e-05
14 *21:34 *46:20 8.95838e-05
15 *21:34 *77:87 0.000231973
16 *21:34 *83:20 0.000131427
17 *21:34 *104:10 7.50756e-05
18 *21:34 *119:75 0.000896519
19 *21:34 *120:72 0.000146152
20 *21:34 *122:29 9.67642e-05
21 *21:34 *145:73 0.000494158
22 *21:34 *146:24 7.45165e-05
23 *21:34 *167:22 9.10986e-05
24 *21:34 *174:67 9.41618e-05
25 *21:34 *247:18 0.00055602
26 *21:34 *247:71 0.00141132
27 *21:34 *259:71 4.20725e-05
*RES
1 *1088:X *21:18 49.1096 
2 *21:18 *21:34 49.2849 
3 *21:34 *1158:D 23 
*END

*D_NET *22 0.0105054
*CONN
*I *1159:D I *D sky130_fd_sc_hd__dfxtp_1
*I *1090:X O *D sky130_fd_sc_hd__clkbuf_1
*CAP
1 *1159:D 0
2 *1090:X 4.60636e-05
3 *22:18 0.00223753
4 *22:12 0.00274039
5 *22:8 0.000548923
6 *22:8 *1102:B 9.64943e-05
7 *22:8 *57:68 2.03974e-05
8 *22:12 *72:14 0.00122151
9 *22:12 *117:26 1.37349e-05
10 *22:12 *139:18 0.000453046
11 *22:12 *139:35 9.07853e-05
12 *22:12 *153:12 7.58027e-05
13 *22:12 *178:38 0.000250846
14 *22:18 *944:A 5.3304e-05
15 *22:18 *1171:D 0.000449178
16 *22:18 *47:10 4.67488e-05
17 *22:18 *69:14 0.000256814
18 *22:18 *99:47 8.16097e-05
19 *22:18 *128:44 5.5792e-05
20 *22:18 *133:6 5.5572e-05
21 *22:18 *161:24 0.00161502
22 *22:18 *256:18 9.58703e-05
*RES
1 *1090:X *22:8 39.0979 
2 *22:8 *22:12 31.6957 
3 *22:12 *22:18 38.368 
4 *22:18 *1159:D 23 
*END

*D_NET *23 0.0228825
*CONN
*I *1160:D I *D sky130_fd_sc_hd__dfxtp_1
*I *1092:X O *D sky130_fd_sc_hd__buf_1
*CAP
1 *1160:D 9.24034e-05
2 *1092:X 0.000345734
3 *23:26 0.00425547
4 *23:12 0.0045088
5 *1160:D *191:142 0.000144668
6 *1160:D *228:24 0.000139796
7 *1160:D *233:27 4.9054e-06
8 *1160:D *236:12 1.64354e-05
9 *23:12 *117:10 0.000150669
10 *23:12 *216:14 0
11 *23:12 *239:70 0
12 *23:26 *28:26 0.000616309
13 *23:26 *45:24 0.000176004
14 *23:26 *95:12 4.51815e-05
15 *23:26 *117:12 0.00217839
16 *23:26 *117:26 0.00275212
17 *23:26 *130:35 0.0012491
18 *23:26 *175:37 0.00144376
19 *23:26 *203:22 0.00289174
20 *23:26 *204:28 4.8098e-05
21 *23:26 *239:58 0.00182288
*RES
1 *1092:X *23:12 43.3132 
2 *23:12 *23:26 48.8411 
3 *23:26 *1160:D 40.2734 
*END

*D_NET *24 0.017499
*CONN
*I *1161:D I *D sky130_fd_sc_hd__dfxtp_1
*I *1104:X O *D sky130_fd_sc_hd__buf_1
*CAP
1 *1161:D 0.000177293
2 *1104:X 8.10578e-05
3 *24:30 0.00124434
4 *24:24 0.0046047
5 *24:8 0.00361871
6 *1161:D *1161:CLK 0.000227882
7 *1161:D *201:110 0.000109906
8 *24:8 *1117:A 2.12347e-06
9 *24:8 *81:132 2.12919e-05
10 *24:8 *234:16 0.000105559
11 *24:24 *63:28 2.06628e-05
12 *24:24 *84:67 0.000854961
13 *24:24 *90:70 3.4915e-06
14 *24:24 *120:72 3.63994e-05
15 *24:24 *156:18 6.70361e-05
16 *24:24 *198:24 7.21606e-05
17 *24:24 *205:22 0.00035862
18 *24:24 *216:64 4.6719e-05
19 *24:24 *234:16 7.79135e-05
20 *24:24 *236:134 5.45558e-05
21 *24:24 *238:62 0.00322169
22 *24:24 *253:29 0.00022344
23 *24:30 *37:22 0.000300636
24 *24:30 *57:68 0.000274082
25 *24:30 *104:16 0.000498862
26 *24:30 *210:14 7.17297e-05
27 *24:30 *233:117 9.82152e-05
28 *24:30 *236:8 0.000361165
29 *24:30 *252:54 0.000199874
30 *20:16 *24:30 0.000463942
*RES
1 *1104:X *24:8 39.5536 
2 *24:8 *24:24 49.954 
3 *24:24 *24:30 48.6754 
4 *24:30 *1161:D 27.495 
*END

*D_NET *25 0.00573654
*CONN
*I *1162:D I *D sky130_fd_sc_hd__dfxtp_1
*I *1108:X O *D sky130_fd_sc_hd__clkbuf_1
*CAP
1 *1162:D 0
2 *1108:X 0.000503163
3 *25:18 0.000522066
4 *25:6 0.00102523
5 *25:6 *1007:A_N 5.3304e-05
6 *25:6 *34:10 0.000723146
7 *25:6 *62:6 0.000389267
8 *25:6 *83:82 1.46286e-05
9 *25:6 *236:39 0.0011826
10 *25:18 *34:10 0.000202667
11 *25:18 *123:22 3.24476e-06
12 *25:18 *174:73 0.000305366
13 *25:18 *174:83 0.000393956
14 *25:18 *210:53 0.000370541
15 *25:18 *234:112 3.09232e-05
16 *25:18 *251:34 1.64354e-05
*RES
1 *1108:X *25:6 37.4379 
2 *25:6 *25:18 41.3152 
3 *25:18 *1162:D 23 
*END

*D_NET *26 0.0245097
*CONN
*I *1163:D I *D sky130_fd_sc_hd__dfxtp_1
*I *1110:X O *D sky130_fd_sc_hd__buf_1
*CAP
1 *1163:D 0
2 *1110:X 0.000288495
3 *26:34 0.00116439
4 *26:28 0.00677376
5 *26:10 0.00589787
6 *26:10 *51:14 5.79715e-05
7 *26:10 *106:10 0.000393187
8 *26:10 *260:40 0.000395428
9 *26:28 *48:32 0.00288959
10 *26:28 *79:16 0
11 *26:28 *80:14 0.000303656
12 *26:28 *80:36 2.82971e-05
13 *26:28 *95:139 0.000103442
14 *26:28 *96:22 9.61939e-05
15 *26:28 *131:32 0.000466338
16 *26:28 *131:44 0.00194369
17 *26:28 *150:44 0.000340183
18 *26:28 *154:30 0.000381359
19 *26:28 *184:22 0.000292801
20 *26:28 *205:24 4.74631e-05
21 *26:28 *243:20 0.00028098
22 *26:34 *81:100 0.000379968
23 *26:34 *82:100 0.000240862
24 *26:34 *94:18 0.000255509
25 *26:34 *134:10 0
26 *26:34 *134:31 0
27 *26:34 *138:34 0.00013227
28 *26:34 *138:57 0.00080637
29 *26:34 *154:30 6.87392e-05
30 *26:34 *204:44 0.000298616
31 *26:34 *233:47 0
32 *26:34 *243:10 4.73652e-05
33 *26:34 *249:14 0.000134931
*RES
1 *1110:X *26:10 45.3018 
2 *26:10 *26:28 48.6224 
3 *26:28 *26:34 41.0741 
4 *26:34 *1163:D 23 
*END

*D_NET *27 0.0093763
*CONN
*I *1164:D I *D sky130_fd_sc_hd__dfxtp_1
*I *1112:X O *D sky130_fd_sc_hd__clkbuf_1
*CAP
1 *1164:D 0
2 *1112:X 0
3 *27:20 0.000639962
4 *27:16 0.00204253
5 *27:6 0.00140257
6 *27:16 *45:8 3.41361e-05
7 *27:16 *64:96 0.000137773
8 *27:16 *130:10 0.00020171
9 *27:16 *130:35 1.12695e-05
10 *27:16 *147:28 0.00116754
11 *27:16 *154:30 0.000150556
12 *27:16 *161:42 0.000445944
13 *27:16 *163:18 0.000621381
14 *27:16 *174:134 0.000660416
15 *27:16 *183:10 2.74681e-05
16 *27:16 *187:30 0.000116701
17 *27:20 *1164:CLK 0.000128783
18 *27:20 *82:62 0.000154032
19 *27:20 *205:49 0.000292299
20 *27:20 *269:6 0.00114123
*RES
1 *1112:X *27:6 38 
2 *27:6 *27:16 37.9464 
3 *27:16 *27:20 33.0887 
4 *27:20 *1164:D 23 
*END

*D_NET *28 0.0324123
*CONN
*I *1165:D I *D sky130_fd_sc_hd__dfxtp_1
*I *1114:X O *D sky130_fd_sc_hd__buf_1
*CAP
1 *1165:D 0.000775784
2 *1114:X 0.0004025
3 *28:30 0.00166854
4 *28:28 0.000892756
5 *28:26 0.00565955
6 *28:24 0.00681201
7 *28:16 0.00179392
8 *28:8 0.00104397
9 *1165:D *260:8 7.38942e-05
10 *28:8 *213:16 0.000700902
11 *28:16 *38:14 8.36198e-05
12 *28:16 *40:12 0.00020753
13 *28:16 *109:10 0.000114237
14 *28:16 *139:8 8.23659e-05
15 *28:16 *153:26 0.00012017
16 *28:16 *204:60 1.0092e-05
17 *28:16 *249:33 0
18 *28:24 *1101:B 2.33476e-05
19 *28:24 *1124:A1 0.00050042
20 *28:24 *94:18 0
21 *28:24 *215:12 0.00125162
22 *28:24 *233:59 0.000171903
23 *28:24 *249:14 0
24 *28:26 *239:58 0.00401332
25 *28:30 *30:16 0.000156576
26 *28:30 *150:46 0.00242121
27 *28:30 *166:16 0
28 *28:30 *182:39 0.00267455
29 *28:30 *216:81 0.000141236
30 *28:30 *246:10 0
31 seg[6] *28:30 0
32 *23:26 *28:26 0.000616309
*RES
1 *1114:X *28:8 45.7679 
2 *28:8 *28:16 41.9521 
3 *28:16 *28:24 40.4579 
4 *28:24 *28:26 85.4257 
5 *28:26 *28:28 15 
6 *28:28 *28:30 44.515 
7 *28:30 *1165:D 49.1495 
*END

*D_NET *29 0.0101817
*CONN
*I *1166:D I *D sky130_fd_sc_hd__dfxtp_1
*I *1116:X O *D sky130_fd_sc_hd__clkbuf_1
*CAP
1 *1166:D 0
2 *1116:X 0.000277409
3 *29:38 0.000658523
4 *29:24 0.00134642
5 *29:18 0.00133436
6 *29:10 0.000923871
7 *29:10 *38:6 0.000261951
8 *29:10 *104:16 8.02685e-05
9 *29:10 *174:134 8.02685e-05
10 *29:18 *137:8 5.56023e-05
11 *29:18 *155:133 0.000128273
12 *29:18 *227:14 0.000646023
13 *29:24 *1116:A 0.00018854
14 *29:24 *81:92 0.00135398
15 *29:24 *250:64 0.000552522
16 *29:24 *255:28 0.000813879
17 *29:38 *49:51 0.00042468
18 *29:38 *148:10 0.000652658
19 *29:38 *155:61 0.000239281
20 *29:38 *201:52 8.19237e-05
21 *29:38 *234:95 8.1228e-05
*RES
1 *1116:X *29:10 42.205 
2 *29:10 *29:18 39.1971 
3 *29:18 *29:24 49.6786 
4 *29:24 *29:38 29.588 
5 *29:38 *1166:D 23 
*END

*D_NET *30 0.0172067
*CONN
*I *1167:D I *D sky130_fd_sc_hd__dfxtp_1
*I *1121:X O *D sky130_fd_sc_hd__buf_1
*CAP
1 *1167:D 0
2 *1121:X 4.64058e-05
3 *30:28 0.00110458
4 *30:16 0.00304724
5 *30:14 0.00194266
6 *30:12 0.00172563
7 *30:8 0.00177203
8 *30:8 *1055:A3 8.78864e-05
9 *30:8 *1089:A1 2.14486e-05
10 *30:12 *997:A 9.82702e-06
11 *30:12 *174:41 0.000145163
12 *30:12 *216:85 0
13 *30:12 *271:74 4.32719e-05
14 *30:16 *216:81 0.00499588
15 *30:28 *989:A 0.000123748
16 *30:28 *989:B_N 0.000140328
17 *30:28 *1092:A 0.000157595
18 *30:28 *126:28 0.00146551
19 *30:28 *128:8 2.20111e-05
20 *30:28 *166:16 0.000120171
21 *30:28 *206:12 7.87243e-05
22 *28:30 *30:16 0.000156576
*RES
1 *1121:X *30:8 39.2014 
2 *30:8 *30:12 38.49 
3 *30:12 *30:14 15 
4 *30:14 *30:16 69.165 
5 *30:16 *30:28 44.435 
6 *30:28 *1167:D 23 
*END

*D_NET *31 0.0125664
*CONN
*I *1168:D I *D sky130_fd_sc_hd__dfxtp_1
*I *1123:X O *D sky130_fd_sc_hd__clkbuf_1
*CAP
1 *1168:D 0
2 *1123:X 0.0010361
3 *31:34 0.000548805
4 *31:26 0.000768351
5 *31:14 0.00161968
6 *31:10 0.00243624
7 *31:10 *1052:A1 5.74259e-05
8 *31:10 *49:110 1.5725e-05
9 *31:10 *77:145 9.08709e-06
10 *31:10 *112:57 0.000194814
11 *31:10 *118:14 1.92855e-05
12 *31:10 *134:37 9.66668e-05
13 *31:10 *163:6 0.000141183
14 *31:10 *191:8 9.90115e-05
15 *31:14 *1025:A2 5.50577e-05
16 *31:14 *1150:A1 5.80848e-05
17 *31:14 *43:12 4.5745e-05
18 *31:14 *75:8 0.000517889
19 *31:14 *93:43 0.000515911
20 *31:14 *115:14 0.000741113
21 *31:14 *117:49 4.51887e-05
22 *31:14 *150:10 5.43589e-05
23 *31:14 *150:44 0.000213963
24 *31:14 *191:122 0.000192884
25 *31:14 *223:50 0.000121976
26 *31:14 *227:33 0.000148481
27 *31:14 *247:18 0
28 *31:14 *258:24 0.000114012
29 *31:14 *258:28 0.000379511
30 *31:26 *1186:A 0.000139974
31 *31:26 *93:43 0.000100932
32 *31:26 *148:10 4.10221e-05
33 *31:26 *191:122 0.000137651
34 *31:26 *234:95 4.9662e-05
35 *31:34 *1063:B 1.59094e-05
36 *31:34 *1074:A1 4.21048e-05
37 *31:34 *1074:A2 9.81081e-06
38 *31:34 *1168:CLK 0.000125955
39 *31:34 *49:61 4.29556e-05
40 *31:34 *148:10 0.000176928
41 *31:34 *172:22 2.89397e-05
42 *31:34 *201:52 0.00038998
43 *31:34 *210:49 0.000263534
44 *31:34 *230:61 0.000663734
45 *31:34 *230:77 6.81645e-05
46 *31:34 *230:86 2.2539e-05
*RES
1 *1123:X *31:10 37.6036 
2 *31:10 *31:14 44.725 
3 *31:14 *31:26 49.2257 
4 *31:26 *31:34 43.3866 
5 *31:34 *1168:D 23 
*END

*D_NET *32 0.0184204
*CONN
*I *1169:D I *D sky130_fd_sc_hd__dfxtp_1
*I *1125:X O *D sky130_fd_sc_hd__buf_1
*CAP
1 *1169:D 0.000507383
2 *1125:X 0.00074254
3 *32:52 0.00172848
4 *32:36 0.00340422
5 *32:12 0.00292566
6 *1169:D *1169:CLK 0.000232327
7 *1169:D *64:51 0
8 *1169:D *81:28 4.60157e-05
9 *1169:D *236:156 0.000146267
10 *32:12 *64:66 0.00119446
11 *32:12 *73:16 1.45672e-05
12 *32:12 *118:41 6.82841e-05
13 *32:12 *183:46 0.00121154
14 *32:36 *36:22 0.000725587
15 *32:36 *64:88 1.02995e-05
16 *32:36 *101:20 0.00176428
17 *32:36 *103:10 2.4917e-05
18 *32:36 *103:26 5.72853e-05
19 *32:36 *113:16 0.00134698
20 *32:36 *113:36 0.000373207
21 *32:36 *115:28 0
22 *32:36 *124:10 0
23 *32:36 *164:16 0.000230696
24 *32:36 *234:18 0.000147441
25 *32:36 *270:18 0.000177091
26 *32:52 *43:26 0
27 *32:52 *64:51 0
28 *32:52 *90:60 5.6515e-05
29 *32:52 *103:26 4.1771e-06
30 *32:52 *121:87 1.30324e-05
31 *32:52 *162:38 9.60689e-05
32 *32:52 *174:108 0.00010762
33 *32:52 *202:14 0.000135037
34 *32:52 *230:55 0
35 *32:52 *236:39 0.000260856
36 *32:52 *236:156 0.000328387
37 *32:52 *237:31 0.000137361
38 *32:52 *251:34 0.000201809
39 *32:52 *252:40 0
*RES
1 *1125:X *32:12 49.4856 
2 *32:12 *32:36 49.0055 
3 *32:36 *32:52 49.7718 
4 *32:52 *1169:D 46.3375 
*END

*D_NET *33 0.00778056
*CONN
*I *1170:D I *D sky130_fd_sc_hd__dfxtp_1
*I *1127:X O *D sky130_fd_sc_hd__clkbuf_1
*CAP
1 *1170:D 0.000406265
2 *1127:X 0.000492773
3 *33:16 0.0011015
4 *33:8 0.00118801
5 *1170:D *1170:CLK 0.000128518
6 *1170:D *79:16 0.000126844
7 *1170:D *96:14 0.00021464
8 *1170:D *126:20 4.98295e-05
9 *1170:D *129:36 0.000244112
10 *1170:D *131:44 0.000103623
11 *33:8 *975:A_N 1.75562e-05
12 *33:8 *1127:A 0.000305425
13 *33:8 *41:8 0.000386129
14 *33:8 *77:145 4.32935e-05
15 *33:8 *235:20 0.000584331
16 *33:8 *236:100 5.3304e-05
17 *33:16 *77:145 0.000442504
18 *33:16 *95:45 0.00055772
19 *33:16 *99:26 0.000179288
20 *33:16 *120:47 0.000177122
21 *33:16 *151:23 0.000307875
22 *33:16 *155:32 0.000136743
23 *33:16 *183:30 0.000526569
24 *33:16 *236:100 6.57815e-06
*RES
1 *1127:X *33:8 34.8279 
2 *33:8 *33:16 48.0007 
3 *33:16 *1170:D 34.6414 
*END

*D_NET *34 0.00802966
*CONN
*I *1171:D I *D sky130_fd_sc_hd__dfxtp_1
*I *1129:X O *D sky130_fd_sc_hd__clkbuf_1
*CAP
1 *1171:D 0.000226404
2 *1129:X 0.000781906
3 *34:26 0.00139595
4 *34:10 0.00195145
5 *34:10 *234:112 0.000214416
6 *34:10 *236:39 2.46462e-05
7 *34:26 *39:24 0.000549966
8 *34:26 *43:26 0.000189115
9 *34:26 *46:20 0
10 *34:26 *83:30 0.000128618
11 *34:26 *100:20 9.72298e-05
12 *34:26 *113:55 0.000803418
13 *34:26 *119:56 0.000130189
14 *34:26 *154:18 1.73694e-05
15 *34:26 *173:30 0.000143999
16 *22:18 *1171:D 0.000449178
17 *25:6 *34:10 0.000723146
18 *25:18 *34:10 0.000202667
*RES
1 *1129:X *34:10 49.8589 
2 *34:10 *34:26 36.4836 
3 *34:26 *1171:D 42.9559 
*END

*D_NET *35 0.00354225
*CONN
*I *1172:D I *D sky130_fd_sc_hd__dfxtp_1
*I *1133:X O *D sky130_fd_sc_hd__clkbuf_1
*CAP
1 *1172:D 0
2 *1133:X 0.000198374
3 *35:14 0.000806211
4 *35:8 0.00100459
5 *35:8 *81:88 2.98405e-05
6 *35:8 *145:27 1.08287e-05
7 *35:8 *212:42 0.00014338
8 *35:14 *48:32 0
9 *35:14 *59:18 0.000106898
10 *35:14 *118:14 0
11 *35:14 *131:44 9.86551e-06
12 *35:14 *149:28 0.000104415
13 *35:14 *183:46 0
14 *35:14 *198:16 0.000932744
15 *35:14 *231:20 0.000195107
16 *35:14 *234:16 0
17 *35:14 *234:18 0
*RES
1 *1133:X *35:8 41.0036 
2 *35:8 *35:14 30.023 
3 *35:14 *1172:D 23 
*END

*D_NET *36 0.00587339
*CONN
*I *1173:D I *D sky130_fd_sc_hd__dfxtp_1
*I *1135:X O *D sky130_fd_sc_hd__clkbuf_1
*CAP
1 *1173:D 0
2 *1135:X 0.000803353
3 *36:22 0.000838839
4 *36:6 0.00164219
5 *36:6 *96:22 0.000843153
6 *36:6 *151:23 3.75171e-05
7 *36:6 *209:18 0.000178517
8 *36:22 *54:12 0.000243196
9 *36:22 *66:20 0
10 *36:22 *164:16 0.000212844
11 *36:22 *169:47 0.000189707
12 *36:22 *171:40 6.39003e-05
13 *36:22 *205:24 0
14 *36:22 *217:16 9.45864e-05
15 *32:36 *36:22 0.000725587
*RES
1 *1135:X *36:6 35.0557 
2 *36:6 *36:22 47.1566 
3 *36:22 *1173:D 23 
*END

*D_NET *37 0.0129569
*CONN
*I *1174:D I *D sky130_fd_sc_hd__dfxtp_1
*I *1137:X O *D sky130_fd_sc_hd__buf_1
*CAP
1 *1174:D 0
2 *1137:X 0.00104214
3 *37:22 0.00071114
4 *37:16 0.00147637
5 *37:10 0.00170554
6 *37:6 0.00198246
7 *37:6 *959:A3 2.25809e-05
8 *37:6 *1144:S 0.000699091
9 *37:6 *201:110 0.000208956
10 *37:10 *950:A 0.000346819
11 *37:10 *89:10 1.24585e-05
12 *37:10 *106:95 1.93422e-05
13 *37:10 *132:10 0.000111714
14 *37:10 *162:22 0.000199803
15 *37:10 *167:12 0.00144464
16 *37:10 *237:14 0.00013009
17 *37:10 *237:18 7.10124e-05
18 *37:16 *1102:B 0.00010561
19 *37:16 *57:68 9.41704e-05
20 *37:16 *228:24 0.000186606
21 *37:16 *230:55 0.000114641
22 *37:22 *49:18 2.23467e-05
23 *37:22 *52:8 0.000137495
24 *37:22 *57:68 0.000178925
25 *37:22 *104:16 1.47387e-05
26 *37:22 *113:36 5.18161e-05
27 *37:22 *169:16 0.000131431
28 *37:22 *171:52 0.00015313
29 *37:22 *227:14 1.88823e-05
30 *37:22 *231:12 3.68467e-05
31 *37:22 *233:77 8.79002e-05
32 *20:16 *37:22 0.00113754
33 *24:30 *37:22 0.000300636
*RES
1 *1137:X *37:6 36.9614 
2 *37:6 *37:10 35.9214 
3 *37:10 *37:16 39.6736 
4 *37:16 *37:22 33.7464 
5 *37:22 *1174:D 23 
*END

*D_NET *38 0.00330386
*CONN
*I *1175:D I *D sky130_fd_sc_hd__dfxtp_1
*I *1139:X O *D sky130_fd_sc_hd__clkbuf_1
*CAP
1 *1175:D 0
2 *1139:X 0.000608446
3 *38:14 0.000180987
4 *38:6 0.000789433
5 *38:6 *1116:A 0.000476809
6 *38:6 *233:47 0.00060768
7 *38:14 *153:26 8.57485e-05
8 *38:14 *173:20 0.000209183
9 *28:16 *38:14 8.36198e-05
10 *29:10 *38:6 0.000261951
*RES
1 *1139:X *38:6 35.5321 
2 *38:6 *38:14 33.568 
3 *38:14 *1175:D 23 
*END

*D_NET *39 0.0176822
*CONN
*I *1176:D I *D sky130_fd_sc_hd__dfxtp_1
*I *1141:X O *D sky130_fd_sc_hd__clkbuf_1
*CAP
1 *1176:D 4.81157e-06
2 *1141:X 1.08854e-05
3 *39:24 0.00417806
4 *39:10 0.00418414
5 *1176:D *116:39 1.78697e-05
6 *1176:D *262:45 1.64354e-05
7 *39:10 *252:54 2.33476e-05
8 *39:24 *1093:B1 0.000126423
9 *39:24 *50:10 0.000104972
10 *39:24 *76:32 0.000217616
11 *39:24 *83:113 9.31842e-05
12 *39:24 *85:30 4.51815e-05
13 *39:24 *88:54 0.000746187
14 *39:24 *106:37 0.000370903
15 *39:24 *106:53 0.00165406
16 *39:24 *108:30 0.00212154
17 *39:24 *108:49 0.00179473
18 *39:24 *119:30 0.000355055
19 *39:24 *173:30 0.000449498
20 *39:24 *174:29 0.000102363
21 *39:24 *181:26 4.51815e-05
22 *39:24 *196:41 2.00759e-06
23 *39:24 *207:18 0.000439619
24 *39:24 *263:32 2.81221e-05
25 *34:26 *39:24 0.000549966
*RES
1 *1141:X *39:10 46.3211 
2 *39:10 *39:24 43.2216 
3 *39:24 *1176:D 38.1916 
*END

*D_NET *40 0.017036
*CONN
*I *1177:D I *D sky130_fd_sc_hd__dfxtp_1
*I *1145:X O *D sky130_fd_sc_hd__clkbuf_1
*CAP
1 *1177:D 0
2 *1145:X 0.000133821
3 *40:22 0.00478034
4 *40:12 0.00491416
5 *40:12 *153:26 0.000209975
6 *40:12 *213:16 9.41704e-05
7 *40:22 *49:18 0.000606288
8 *40:22 *57:50 0.000636093
9 *40:22 *57:68 8.90636e-05
10 *40:22 *65:30 0.000170268
11 *40:22 *73:16 2.05503e-05
12 *40:22 *77:178 1.78697e-05
13 *40:22 *84:81 7.47571e-05
14 *40:22 *90:24 2.55744e-05
15 *40:22 *90:70 1.08164e-05
16 *40:22 *100:63 0.00154619
17 *40:22 *115:28 0.00104416
18 *40:22 *117:49 4.51815e-05
19 *40:22 *119:75 2.16954e-05
20 *40:22 *120:72 3.14565e-05
21 *40:22 *121:73 0.000204855
22 *40:22 *130:76 2.26406e-05
23 *40:22 *155:61 8.79977e-05
24 *40:22 *191:64 0.000125405
25 *40:22 *204:44 2.44333e-05
26 *40:22 *212:30 0.00153596
27 *40:22 *230:26 0.000238696
28 *40:22 *234:73 1.64354e-05
29 *40:22 *238:39 4.27314e-05
30 *21:18 *40:22 5.69208e-05
31 *28:16 *40:12 0.00020753
*RES
1 *1145:X *40:12 49.8839 
2 *40:12 *40:22 34.9889 
3 *40:22 *1177:D 23 
*END

*D_NET *41 0.00778962
*CONN
*I *1178:D I *D sky130_fd_sc_hd__dfxtp_1
*I *1147:X O *D sky130_fd_sc_hd__clkbuf_1
*CAP
1 *1178:D 0
2 *1147:X 0.00034228
3 *41:22 0.00158231
4 *41:8 0.00192459
5 *41:22 *1117:D_N 6.80197e-05
6 *41:22 *56:14 0
7 *41:22 *65:30 1.4148e-05
8 *41:22 *78:16 0
9 *41:22 *78:67 7.28888e-05
10 *41:22 *95:73 0.00022034
11 *41:22 *157:12 4.30894e-05
12 *41:22 *191:64 7.57281e-06
13 *41:22 *191:79 0.0002602
14 *41:22 *191:177 0.000303628
15 *41:22 *198:28 4.78361e-05
16 *41:22 *223:42 7.83041e-05
17 *41:22 *234:73 0
18 *41:22 *234:163 0.000576992
19 *41:22 *257:37 4.78662e-05
20 *41:22 *257:49 0.000399568
21 *41:22 *263:46 0.00115489
22 *41:22 *268:24 0.000112806
23 *41:22 *268:30 6.7159e-05
24 *41:22 *268:41 7.89883e-05
25 *33:8 *41:8 0.000386129
*RES
1 *1147:X *41:8 42.4329 
2 *41:8 *41:22 48.1895 
3 *41:22 *1178:D 23 
*END

*D_NET *42 0.0124997
*CONN
*I *1179:D I *D sky130_fd_sc_hd__dfxtp_1
*I *1149:X O *D sky130_fd_sc_hd__buf_1
*CAP
1 *1179:D 1.01088e-05
2 *1149:X 0.000312236
3 *42:10 0.00184065
4 *42:8 0.00214278
5 *1179:D *233:59 1.64354e-05
6 *42:10 *275:DIODE 2.26497e-05
7 *42:10 *108:30 0.000152214
8 *42:10 *133:21 0.000421344
9 *42:10 *200:14 2.26406e-05
10 *42:10 *201:116 0.000115526
11 *42:10 *215:12 0
12 *42:10 *216:20 0.000129924
13 *42:10 *221:43 0.000443488
14 *42:10 *238:12 0.00209227
15 *42:10 *238:22 0.00150106
16 *42:10 *265:22 0.00195206
17 *19:14 *42:10 0.00132431
*RES
1 *1149:X *42:8 42.4329 
2 *42:8 *42:10 64.9393 
3 *42:10 *1179:D 38.1916 
*END

*D_NET *43 0.0152896
*CONN
*I *1180:D I *D sky130_fd_sc_hd__dfxtp_1
*I *1151:X O *D sky130_fd_sc_hd__buf_1
*CAP
1 *1180:D 0.000172289
2 *1151:X 0.000136046
3 *43:32 0.00156152
4 *43:26 0.00317819
5 *43:12 0.001925
6 *1180:D *97:45 0.000372454
7 *1180:D *270:8 5.3304e-05
8 *43:12 *57:50 0.000264131
9 *43:12 *100:63 0.000270501
10 *43:12 *258:24 4.5745e-05
11 *43:26 *54:12 0.00033006
12 *43:26 *100:20 1.17256e-05
13 *43:26 *100:32 2.89817e-05
14 *43:26 *113:55 0.00035609
15 *43:26 *117:49 2.55481e-05
16 *43:26 *119:56 0.000159675
17 *43:26 *129:26 4.24694e-06
18 *43:26 *155:61 0.00108887
19 *43:26 *216:64 0.000527274
20 *43:26 *228:24 0.000481839
21 *43:26 *236:156 0
22 *43:26 *252:40 4.54748e-05
23 *43:32 *948:A 0.000123085
24 *43:32 *96:36 0.000542904
25 *43:32 *100:20 9.76622e-05
26 *43:32 *158:14 0.000266207
27 *43:32 *196:41 9.65021e-05
28 *43:32 *198:54 9.64943e-05
29 *43:32 *247:88 0.00082396
30 *43:32 *251:34 0.000398327
31 *43:32 *270:10 0.00157059
32 *31:14 *43:12 4.5745e-05
33 *32:52 *43:26 0
34 *34:26 *43:26 0.000189115
*RES
1 *1151:X *43:12 47.2015 
2 *43:12 *43:26 49.7072 
3 *43:26 *43:32 48.785 
4 *43:32 *1180:D 42.9559 
*END

*D_NET *44 0.0176925
*CONN
*I *1181:D I *D sky130_fd_sc_hd__dfxtp_1
*I *1153:X O *D sky130_fd_sc_hd__buf_1
*CAP
1 *1181:D 0
2 *1153:X 0.000706153
3 *44:22 0.00358176
4 *44:10 0.00428791
5 *44:10 *1127:A 5.50049e-05
6 *44:10 *73:16 8.60929e-05
7 *44:10 *127:37 2.05503e-05
8 *44:22 *1124:A1 5.09165e-05
9 *44:22 *64:66 2.88764e-05
10 *44:22 *80:36 4.33237e-05
11 *44:22 *85:20 0.000388781
12 *44:22 *94:18 4.49573e-06
13 *44:22 *101:20 0.000216343
14 *44:22 *113:36 0.000296155
15 *44:22 *183:46 0.00104283
16 *44:22 *211:34 8.6993e-05
17 *44:22 *233:53 3.81338e-05
18 *44:22 *233:59 1.01436e-05
19 *44:22 *236:69 3.17911e-05
20 *44:22 *243:20 0.00520332
21 *44:22 *250:29 2.54551e-05
22 *44:22 *250:52 0.000626027
23 *44:22 *259:14 0.000280926
24 *44:22 *259:34 0.00049276
25 *44:22 *269:18 8.77946e-05
*RES
1 *1153:X *44:10 48.9475 
2 *44:10 *44:22 43.8862 
3 *44:22 *1181:D 23 
*END

*D_NET *45 0.0182652
*CONN
*I *1182:D I *D sky130_fd_sc_hd__dfrtp_2
*I *947:X O *D sky130_fd_sc_hd__xor2_1
*CAP
1 *1182:D 0.000407484
2 *947:X 0.00035253
3 *45:24 0.00486575
4 *45:8 0.00481079
5 *1182:D *1182:CLK 2.1819e-05
6 *1182:D *145:27 5.52339e-05
7 *1182:D *234:65 0.000401957
8 *45:8 *64:96 0.000337052
9 *45:8 *161:42 0
10 *45:8 *169:16 5.5502e-05
11 *45:24 *55:14 1.66465e-05
12 *45:24 *79:6 0.000359435
13 *45:24 *117:26 2.28342e-05
14 *45:24 *125:20 0.000141468
15 *45:24 *130:56 0.000130169
16 *45:24 *166:16 0.00040892
17 *45:24 *175:37 0.00340685
18 *45:24 *187:30 0.00036632
19 *45:24 *191:54 0.00100969
20 *45:24 *197:36 0.000178479
21 *45:24 *205:40 6.53528e-05
22 *45:24 *212:58 1.67025e-05
23 *45:24 *215:14 0.00043718
24 *45:24 *220:30 8.7908e-05
25 *45:24 *234:65 9.90311e-05
26 *23:26 *45:24 0.000176004
27 *27:16 *45:8 3.41361e-05
*RES
1 *947:X *45:8 45.3639 
2 *45:8 *45:24 45.7199 
3 *45:24 *1182:D 44.9807 
*END

*D_NET *46 0.0204801
*CONN
*I *1183:D I *D sky130_fd_sc_hd__dfrtp_4
*I *946:Y O *D sky130_fd_sc_hd__nor2_1
*CAP
1 *1183:D 0
2 *946:Y 1.5769e-05
3 *46:24 0.00204373
4 *46:20 0.00572171
5 *46:10 0.00369375
6 *46:10 *185:61 2.26406e-05
7 *46:20 *1002:A0 0.000136172
8 *46:20 *1002:S 0.000243881
9 *46:20 *64:51 0
10 *46:20 *81:28 1.66113e-05
11 *46:20 *83:167 0.000139732
12 *46:20 *98:30 0.0010058
13 *46:20 *100:20 0
14 *46:20 *110:41 0
15 *46:20 *121:18 5.30476e-05
16 *46:20 *128:44 0.000149655
17 *46:20 *167:22 0.000137151
18 *46:20 *185:61 0
19 *46:20 *200:28 0.00283393
20 *46:20 *207:18 0.00157717
21 *46:20 *207:32 8.64901e-05
22 *46:20 *236:156 0.000602719
23 *46:20 *264:31 0
24 *46:20 *266:51 0.000180464
25 *46:24 *191:128 0.00132132
26 *46:24 *191:142 8.75357e-05
27 *46:24 *233:117 0.000220571
28 *46:24 *252:48 5.18161e-05
29 *1183:RESET_B *46:24 4.88664e-05
30 *21:34 *46:20 8.95838e-05
31 *34:26 *46:20 0
*RES
1 *946:Y *46:10 46.3211 
2 *46:10 *46:20 47.736 
3 *46:20 *46:24 27.7986 
4 *46:24 *1183:D 23 
*END

*D_NET *47 0.000727083
*CONN
*I *1184:D I *D sky130_fd_sc_hd__dfrtp_1
*I *944:X O *D sky130_fd_sc_hd__xor2_1
*CAP
1 *1184:D 0
2 *944:X 0.000178632
3 *47:10 0.000178632
4 *47:10 *944:A 0.000117328
5 *47:10 *96:36 0.000179113
6 *47:10 *110:14 2.66291e-05
7 *22:18 *47:10 4.67488e-05
*RES
1 *944:X *47:10 41.7079 
2 *47:10 *1184:D 38 
*END

*D_NET *48 0.0203923
*CONN
*I *1106:A I *D sky130_fd_sc_hd__buf_2
*I *272:DIODE I *D sky130_fd_sc_hd__diode_2
*I *1105:X O *D sky130_fd_sc_hd__and3_1
*CAP
1 *1106:A 0
2 *272:DIODE 6.07597e-05
3 *1105:X 0.00107807
4 *48:38 7.8043e-05
5 *48:32 0.00379807
6 *48:12 0.00485886
7 *272:DIODE *938:A 7.0127e-05
8 *272:DIODE *1170:CLK 0.000137525
9 *48:12 *57:36 0.000414781
10 *48:12 *76:32 7.59366e-05
11 *48:12 *100:77 2.26406e-05
12 *48:12 *105:10 5.08422e-06
13 *48:12 *113:84 0.00103545
14 *48:12 *130:76 2.55744e-05
15 *48:12 *131:14 3.49078e-05
16 *48:12 *212:58 0.000135941
17 *48:12 *239:93 2.25121e-05
18 *48:32 *95:30 0.000259178
19 *48:32 *95:45 0.000210497
20 *48:32 *95:53 0.000431951
21 *48:32 *95:139 0.000358682
22 *48:32 *113:84 0.000556862
23 *48:32 *118:24 0.000902818
24 *48:32 *131:44 0.00135384
25 *48:32 *150:44 0.000184263
26 *48:32 *181:26 0.000574205
27 *48:32 *183:46 3.21454e-05
28 *48:32 *185:20 4.82958e-05
29 *48:32 *234:18 0.000148075
30 *48:32 *243:20 0.000476828
31 *48:38 *49:18 2.23467e-05
32 *48:38 *85:8 7.57281e-06
33 seg[2] *48:12 8.08999e-05
34 *26:28 *48:32 0.00288959
35 *35:14 *48:32 0
*RES
1 *1105:X *48:12 49.0819 
2 *48:12 *48:32 46.4677 
3 *48:32 *48:38 23.3211 
4 *48:38 *272:DIODE 24.5743 
5 *48:38 *1106:A 23 
*END

*D_NET *49 0.0297677
*CONN
*I *1113:S I *D sky130_fd_sc_hd__mux2_1
*I *1109:S I *D sky130_fd_sc_hd__mux2_1
*I *1107:S I *D sky130_fd_sc_hd__mux2_1
*I *1115:S I *D sky130_fd_sc_hd__mux2_1
*I *1111:S I *D sky130_fd_sc_hd__mux2_1
*I *1106:X O *D sky130_fd_sc_hd__buf_2
*CAP
1 *1113:S 0
2 *1109:S 0
3 *1107:S 0.00036122
4 *1115:S 0
5 *1111:S 0.000128648
6 *1106:X 0
7 *49:110 0.00126037
8 *49:76 0.00191363
9 *49:61 0.00204478
10 *49:51 0.00153427
11 *49:45 0.00146161
12 *49:39 0.00250588
13 *49:35 0.0010481
14 *49:18 0.00140039
15 *49:4 0.00149404
16 *1107:S *1107:A0 7.28117e-05
17 *1107:S *174:41 1.3523e-05
18 *1107:S *174:45 0.000366658
19 *1107:S *174:57 8.12496e-05
20 *1107:S *271:74 3.91223e-05
21 *1111:S *1111:A1 2.31591e-05
22 *1111:S *134:10 0.000175903
23 *1111:S *259:50 0.0001784
24 *49:18 *938:A 0.000142678
25 *49:18 *57:68 2.05503e-05
26 *49:18 *84:89 0.000450113
27 *49:18 *85:8 7.70695e-05
28 *49:18 *90:70 5.64898e-05
29 *49:18 *115:40 0.000102363
30 *49:18 *120:26 0.000409854
31 *49:18 *137:8 0.000231782
32 *49:18 *155:133 0
33 *49:18 *169:29 0
34 *49:18 *250:52 0.00019585
35 *49:35 *938:A 5.3304e-05
36 *49:35 *82:79 2.46108e-05
37 *49:35 *85:8 0.000304119
38 *49:35 *155:26 0.000202251
39 *49:39 *116:96 0.000121197
40 *49:39 *134:37 0.000114768
41 *49:39 *150:14 0.00153638
42 *49:39 *150:22 5.58003e-05
43 *49:39 *183:22 0.000535947
44 *49:45 *148:10 0.000727154
45 *49:45 *155:34 0.000206388
46 *49:45 *269:18 0.000228871
47 *49:51 *84:81 0.000653201
48 *49:51 *99:26 2.29906e-05
49 *49:51 *120:72 1.85483e-05
50 *49:51 *138:30 9.41704e-05
51 *49:51 *155:34 8.03977e-05
52 *49:51 *155:61 0.000526292
53 *49:51 *174:83 6.97305e-05
54 *49:51 *191:122 0.000152294
55 *49:51 *201:33 4.02656e-05
56 *49:51 *201:52 0.000370096
57 *49:51 *231:12 4.67488e-05
58 *49:51 *258:20 0.000276958
59 *49:61 *93:43 9.37284e-05
60 *49:61 *103:32 0.000139692
61 *49:61 *103:43 2.1819e-05
62 *49:61 *148:8 5.56356e-05
63 *49:61 *202:8 0.000175209
64 *49:61 *230:77 6.56284e-05
65 *49:61 *230:86 0.000246731
66 *49:76 *1148:S 0.000201511
67 *49:76 *71:69 4.05667e-05
68 *49:76 *74:6 1.09903e-05
69 *49:76 *74:10 0.00065833
70 *49:76 *77:49 0
71 *49:76 *88:54 0.000214335
72 *49:76 *93:37 4.56838e-05
73 *49:76 *93:43 0.000252111
74 *49:76 *98:30 2.46199e-05
75 *49:76 *116:128 2.05503e-05
76 *49:76 *122:29 3.81121e-05
77 *49:76 *146:24 6.0109e-05
78 *49:76 *167:22 1.02561e-05
79 *49:76 *174:57 0.000305895
80 *49:76 *202:8 1.05441e-05
81 *49:76 *230:96 2.4842e-05
82 *49:76 *261:24 0.00025015
83 *49:76 *271:49 0.000530051
84 *49:110 *53:10 2.4754e-05
85 *49:110 *77:160 4.81905e-05
86 *49:110 *82:54 1.27069e-05
87 *49:110 *82:62 0.000152911
88 *49:110 *112:57 1.84831e-05
89 *49:110 *134:37 1.47795e-05
90 *49:110 *149:34 0.000153368
91 *49:110 *150:14 0.000132513
92 *49:110 *191:16 9.80703e-06
93 *49:110 *191:26 8.68882e-05
94 *49:110 *236:110 0.000228909
95 *49:110 *258:28 0
96 *29:38 *49:51 0.00042468
97 *31:10 *49:110 1.5725e-05
98 *31:34 *49:61 4.29556e-05
99 *37:22 *49:18 2.23467e-05
100 *40:22 *49:18 0.000606288
101 *48:38 *49:18 2.23467e-05
*RES
1 *1106:X *49:4 23 
2 *49:4 *49:18 49.6167 
3 *49:18 *1111:S 41.0036 
4 *49:4 *49:35 34.9921 
5 *49:35 *49:39 20.1757 
6 *49:39 *49:45 40.3571 
7 *49:45 *49:51 38.0757 
8 *49:51 *49:61 38.6793 
9 *49:61 *1115:S 38 
10 *49:61 *49:76 46.2993 
11 *49:76 *1107:S 30.9543 
12 *49:45 *1109:S 23 
13 *49:39 *49:110 49.9271 
14 *49:110 *1113:S 23 
*END

*D_NET *50 0.0123763
*CONN
*I *1108:A I *D sky130_fd_sc_hd__clkbuf_1
*I *1107:X O *D sky130_fd_sc_hd__mux2_1
*CAP
1 *1108:A 0
2 *1107:X 0.00103183
3 *50:18 0.000503426
4 *50:10 0.00190595
5 *50:6 0.00243435
6 *50:6 *174:45 3.05276e-05
7 *50:6 *271:74 0.00125386
8 *50:10 *1146:S 0.000366829
9 *50:10 *73:16 0.000389368
10 *50:10 *116:23 0.000592136
11 *50:10 *116:39 4.4904e-05
12 *50:10 *121:10 0.000140646
13 *50:10 *174:23 3.27663e-05
14 *50:10 *174:29 0.00016505
15 *50:10 *197:22 0.00017912
16 *50:10 *218:10 1.36038e-05
17 *50:10 *263:32 0.000725527
18 *50:18 *1072:A 2.41378e-06
19 *50:18 *62:6 0.00123611
20 *50:18 *83:82 7.89984e-05
21 *50:18 *241:8 0.00114389
22 *39:24 *50:10 0.000104972
*RES
1 *1107:X *50:6 37.9143 
2 *50:6 *50:10 44.725 
3 *50:10 *50:18 30.4321 
4 *50:18 *1108:A 23 
*END

*D_NET *51 0.00801009
*CONN
*I *1110:A I *D sky130_fd_sc_hd__buf_1
*I *1109:X O *D sky130_fd_sc_hd__mux2_1
*CAP
1 *1110:A 0
2 *1109:X 0
3 *51:14 0.00194032
4 *51:4 0.00194032
5 *51:14 *78:118 0.000288236
6 *51:14 *112:47 0.00032056
7 *51:14 *121:34 0.000167024
8 *51:14 *223:42 0.00132918
9 *51:14 *231:12 0.000642781
10 *51:14 *248:31 0.0013237
11 *26:10 *51:14 5.79715e-05
*RES
1 *1109:X *51:4 23 
2 *51:4 *51:14 42.4021 
3 *51:14 *1110:A 23 
*END

*D_NET *52 0.000659767
*CONN
*I *1112:A I *D sky130_fd_sc_hd__clkbuf_1
*I *1111:X O *D sky130_fd_sc_hd__mux2_1
*CAP
1 *1112:A 7.99286e-05
2 *1111:X 5.98333e-05
3 *52:8 0.000139762
4 *1112:A *1116:A 0.000139443
5 *52:8 *57:68 7.06765e-05
6 *52:8 *104:16 3.2629e-05
7 *37:22 *52:8 0.000137495
*RES
1 *1111:X *52:8 39.9057 
2 *52:8 *1112:A 39.5743 
*END

*D_NET *53 0.0118445
*CONN
*I *1114:A I *D sky130_fd_sc_hd__buf_1
*I *1113:X O *D sky130_fd_sc_hd__mux2_1
*CAP
1 *1114:A 0
2 *1113:X 0.000205302
3 *53:20 0.00162441
4 *53:14 0.00207692
5 *53:10 0.000657807
6 *53:10 *94:6 0.000168694
7 *53:10 *191:26 0.00044778
8 *53:10 *236:110 0.000269775
9 *53:14 *1011:A2 0.00010018
10 *53:14 *94:6 0.00227497
11 *53:14 *180:65 0.000311554
12 *53:14 *183:8 0.000135456
13 *53:14 *191:26 0.000527733
14 *53:20 *947:B 0
15 *53:20 *1139:A 4.62362e-05
16 *53:20 *57:103 2.64341e-05
17 *53:20 *80:14 2.26497e-05
18 *53:20 *84:89 0
19 *53:20 *90:70 0.000313825
20 *53:20 *106:111 0.000178371
21 *53:20 *115:40 0
22 *53:20 *120:26 2.2177e-05
23 *53:20 *155:22 9.32078e-05
24 *53:20 *161:42 0.000733104
25 *53:20 *169:29 0.000332765
26 *53:20 *174:124 6.52749e-05
27 *53:20 *182:24 0.000173432
28 *53:20 *213:16 0.000350331
29 *53:20 *233:90 0.000365702
30 *53:20 *238:62 0.000222923
31 *53:20 *239:56 7.27568e-05
32 *49:110 *53:10 2.4754e-05
*RES
1 *1113:X *53:10 31.2857 
2 *53:10 *53:14 39.9193 
3 *53:14 *53:20 49.4064 
4 *53:20 *1114:A 23 
*END

*D_NET *54 0.0113427
*CONN
*I *1116:A I *D sky130_fd_sc_hd__clkbuf_1
*I *1115:X O *D sky130_fd_sc_hd__mux2_1
*CAP
1 *1116:A 0.00165848
2 *1115:X 0.00030784
3 *54:12 0.00266116
4 *54:8 0.00131052
5 *1116:A *81:92 0.000862266
6 *1116:A *169:35 2.43944e-05
7 *1116:A *233:47 9.64943e-05
8 *1116:A *250:64 0.000126023
9 *54:8 *191:128 0.000342939
10 *54:12 *1077:A1 0.000154386
11 *54:12 *100:32 0.00014787
12 *54:12 *125:46 0.000230912
13 *54:12 *129:26 6.88848e-05
14 *54:12 *164:16 0.000937492
15 *54:12 *210:49 0.000379412
16 *54:12 *217:16 0.000600673
17 *54:12 *252:40 5.4952e-05
18 *1112:A *1116:A 0.000139443
19 *29:24 *1116:A 0.00018854
20 *36:22 *54:12 0.000243196
21 *38:6 *1116:A 0.000476809
22 *43:26 *54:12 0.00033006
*RES
1 *1115:X *54:8 41.9564 
2 *54:8 *54:12 39.4429 
3 *54:12 *1116:A 49.5557 
*END

*D_NET *55 0.00624591
*CONN
*I *1118:A I *D sky130_fd_sc_hd__clkbuf_1
*I *1117:X O *D sky130_fd_sc_hd__or4b_1
*CAP
1 *1118:A 0
2 *1117:X 9.41974e-05
3 *55:14 0.00166362
4 *55:8 0.00175782
5 *55:8 *82:30 5.3304e-05
6 *55:8 *218:22 0.000163905
7 *55:14 *1117:A 9.23705e-06
8 *55:14 *56:12 0.000120603
9 *55:14 *78:36 2.08008e-05
10 *55:14 *81:132 1.98354e-05
11 *55:14 *82:40 0.000128528
12 *55:14 *95:139 4.54742e-05
13 *55:14 *125:20 6.61938e-05
14 *55:14 *126:20 0.000813501
15 *55:14 *131:32 1.58785e-05
16 *55:14 *191:16 0.000139342
17 *55:14 *231:28 0
18 *55:14 *234:18 0
19 *55:14 *234:65 3.14005e-05
20 *55:14 *236:100 0
21 *55:14 *252:10 0.000128169
22 *55:14 *257:49 0
23 *55:14 *268:30 0.000957449
24 *45:24 *55:14 1.66465e-05
*RES
1 *1117:X *55:8 40.0507 
2 *55:8 *55:14 46.5686 
3 *55:14 *1118:A 23 
*END

*D_NET *56 0.0130802
*CONN
*I *1119:A I *D sky130_fd_sc_hd__buf_2
*I *1118:X O *D sky130_fd_sc_hd__clkbuf_1
*CAP
1 *1119:A 0
2 *1118:X 0.000440242
3 *56:26 0.000779137
4 *56:14 0.0030094
5 *56:12 0.00267051
6 *56:12 *1092:A 5.41288e-05
7 *56:12 *126:28 0.000109567
8 *56:12 *191:16 5.3304e-05
9 *56:14 *61:8 0.000701171
10 *56:14 *77:117 1.16112e-05
11 *56:14 *78:16 9.2133e-05
12 *56:14 *78:36 0
13 *56:14 *78:51 0.000200185
14 *56:14 *112:30 0.000742637
15 *56:14 *112:91 0.000371332
16 *56:14 *114:10 0.000106977
17 *56:14 *124:67 0.000106832
18 *56:14 *149:18 8.90749e-05
19 *56:14 *179:32 1.15896e-05
20 *56:14 *196:22 2.15619e-05
21 *56:14 *201:72 0.00113972
22 *56:14 *220:30 5.56706e-05
23 *56:14 *234:73 0.000174069
24 *56:14 *236:134 2.33476e-05
25 *56:14 *239:70 0.000621484
26 *56:14 *239:76 3.1125e-05
27 *56:14 *248:41 0.000135257
28 *56:14 *257:49 0
29 *56:14 *263:50 4.15283e-06
30 *56:26 *1100:A_N 8.81036e-05
31 *56:26 *82:135 4.96982e-05
32 *56:26 *82:154 3.90213e-05
33 *56:26 *178:71 0.000135037
34 *56:26 *183:46 6.52177e-06
35 *56:26 *193:8 7.5047e-05
36 *56:26 *196:31 0.00010895
37 *56:26 *221:12 0.000279241
38 *56:26 *245:14 0.000421758
39 *41:22 *56:14 0
40 *55:14 *56:12 0.000120603
*RES
1 *1118:X *56:12 45.8093 
2 *56:12 *56:14 46.8039 
3 *56:14 *56:26 35.5447 
4 *56:26 *1119:A 23 
*END

*D_NET *57 0.0400314
*CONN
*I *1128:S I *D sky130_fd_sc_hd__mux2_1
*I *1126:S I *D sky130_fd_sc_hd__mux2_1
*I *1122:S I *D sky130_fd_sc_hd__mux2_1
*I *1124:S I *D sky130_fd_sc_hd__mux2_1
*I *1120:S I *D sky130_fd_sc_hd__mux2_1
*I *1119:X O *D sky130_fd_sc_hd__buf_2
*CAP
1 *1128:S 0.000202673
2 *1126:S 4.1499e-05
3 *1122:S 0
4 *1124:S 0.000591315
5 *1120:S 0.000122731
6 *1119:X 0.000539311
7 *57:103 0.00100142
8 *57:87 0.00106523
9 *57:72 0.000827057
10 *57:68 0.00282191
11 *57:50 0.00551245
12 *57:36 0.00422967
13 *57:22 0.00211298
14 *57:14 0.0010012
15 *1120:S *1120:A1 7.15126e-05
16 *1124:S *1016:B1 0.000324883
17 *1124:S *129:36 0.000143011
18 *1124:S *155:14 0.000781816
19 *1124:S *174:134 3.56172e-05
20 *1128:S *1192:A 0.000438941
21 *1128:S *62:6 9.36359e-05
22 *57:14 *1047:A 1.24376e-05
23 *57:14 *1093:B1 5.11621e-05
24 *57:14 *108:49 0
25 *57:14 *178:71 5.6222e-05
26 *57:14 *223:34 2.04506e-05
27 *57:14 *234:173 0
28 *57:14 *242:24 9.96816e-05
29 *57:14 *256:34 0.000297205
30 *57:22 *108:65 0.000335523
31 *57:22 *112:18 0.000350075
32 *57:22 *193:8 0.000318786
33 *57:36 *1117:D_N 5.61625e-06
34 *57:36 *77:121 6.8999e-05
35 *57:36 *78:16 0.000135037
36 *57:36 *81:132 4.61835e-05
37 *57:36 *82:18 2.05503e-05
38 *57:36 *82:135 0.000184742
39 *57:36 *90:24 3.31551e-05
40 *57:36 *100:63 0.000717781
41 *57:36 *108:65 0.000673972
42 *57:36 *127:37 3.99486e-05
43 *57:36 *130:76 8.35126e-06
44 *57:36 *193:8 0.000427696
45 *57:36 *212:58 1.22804e-05
46 *57:36 *235:54 4.05253e-05
47 *57:36 *239:70 7.13651e-05
48 *57:36 *239:93 7.69806e-05
49 *57:36 *239:109 2.18546e-05
50 *57:50 *81:88 8.30566e-06
51 *57:50 *81:132 2.51697e-05
52 *57:50 *82:40 0.000179931
53 *57:50 *100:40 0.00122412
54 *57:50 *100:63 0.000502801
55 *57:50 *115:28 0.000355066
56 *57:50 *117:49 4.51815e-05
57 *57:50 *121:73 0.000324181
58 *57:50 *130:56 1.22586e-05
59 *57:50 *145:35 0.000218709
60 *57:50 *198:16 0
61 *57:68 *1102:B 0.000549908
62 *57:68 *100:40 0.000739952
63 *57:68 *104:16 0.000766004
64 *57:68 *115:28 0.000162448
65 *57:68 *171:52 3.95179e-05
66 *57:68 *230:26 0.000169378
67 *57:72 *133:12 0.000903131
68 *57:72 *133:21 0.000573238
69 *57:72 *139:35 0.00102268
70 *57:72 *179:14 4.89846e-05
71 *57:72 *219:26 0.000490667
72 *57:87 *82:79 0.000577325
73 *57:87 *82:100 6.53015e-05
74 *57:87 *155:26 0.000371208
75 *57:87 *155:133 0.000626859
76 *57:87 *255:20 0.000232394
77 *57:87 *255:63 1.20966e-05
78 *57:103 *938:A 0.000181797
79 *57:103 *84:89 0.000169429
80 *57:103 *155:14 0.000167573
81 *57:103 *155:22 0.000131383
82 *57:103 *157:32 0.000355649
83 *57:103 *220:6 0.000350829
84 *19:14 *57:72 0.00025313
85 *22:8 *57:68 2.03974e-05
86 *24:30 *57:68 0.000274082
87 *37:16 *57:68 9.41704e-05
88 *37:22 *57:68 0.000178925
89 *40:22 *57:50 0.000636093
90 *40:22 *57:68 8.90636e-05
91 *43:12 *57:50 0.000264131
92 *48:12 *57:36 0.000414781
93 *49:18 *57:68 2.05503e-05
94 *52:8 *57:68 7.06765e-05
95 *53:20 *57:103 2.64341e-05
*RES
1 *1119:X *57:14 47.5493 
2 *57:14 *57:22 38.6793 
3 *57:22 *57:36 47.7558 
4 *57:36 *57:50 37.3527 
5 *57:50 *57:68 49.9389 
6 *57:68 *57:72 39.795 
7 *57:72 *1120:S 40.0507 
8 *57:50 *57:87 37.4068 
9 *57:87 *57:103 40.3571 
10 *57:103 *1124:S 36.9821 
11 *57:87 *1122:S 23 
12 *57:36 *1126:S 23.8493 
13 *57:22 *1128:S 42.9093 
*END

*D_NET *58 0.0157057
*CONN
*I *1121:A I *D sky130_fd_sc_hd__buf_1
*I *1120:X O *D sky130_fd_sc_hd__mux2_1
*CAP
1 *1121:A 0
2 *1120:X 0.00116454
3 *58:30 0.000576788
4 *58:22 0.00293575
5 *58:12 0.00249105
6 *58:6 0.00129664
7 *58:6 *1120:A1 4.27251e-05
8 *58:6 *93:16 0.000481483
9 *58:6 *163:51 0.000108615
10 *58:6 *252:56 3.81287e-05
11 *58:12 *106:80 0.000288011
12 *58:12 *233:189 0.000285873
13 *58:22 *83:167 0
14 *58:22 *88:27 7.57576e-05
15 *58:22 *106:65 0.000192104
16 *58:22 *136:24 0.000355791
17 *58:22 *185:61 0.00186282
18 *58:22 *208:73 0.000621498
19 *58:22 *235:74 0.00112551
20 *58:22 *271:43 0.000190268
21 *58:30 *65:8 0.000189049
22 *58:30 *78:97 0
23 *58:30 *155:111 0.000926607
24 *58:30 *235:60 0.000456705
*RES
1 *1120:X *58:6 39.3436 
2 *58:6 *58:12 34.0186 
3 *58:12 *58:22 48.8578 
4 *58:22 *58:30 38.6911 
5 *58:30 *1121:A 23 
*END

*D_NET *59 0.00636769
*CONN
*I *1123:A I *D sky130_fd_sc_hd__clkbuf_1
*I *1122:X O *D sky130_fd_sc_hd__mux2_1
*CAP
1 *1123:A 0
2 *1122:X 0.00119531
3 *59:18 0.000953475
4 *59:10 0.00214878
5 *59:10 *149:28 0.000186041
6 *59:10 *157:28 0.00037625
7 *59:10 *184:22 0.000496904
8 *59:10 *191:34 6.70717e-05
9 *59:10 *247:8 5.58003e-05
10 *59:10 *253:14 5.46873e-05
11 *59:18 *957:A 0.000105342
12 *59:18 *60:14 5.73087e-07
13 *59:18 *60:22 5.00562e-06
14 *59:18 *78:36 0.000131383
15 *59:18 *95:139 9.92345e-05
16 *59:18 *126:20 0.000131383
17 *59:18 *149:28 0.000253555
18 *35:14 *59:18 0.000106898
*RES
1 *1122:X *59:10 45.5786 
2 *59:10 *59:18 43.485 
3 *59:18 *1123:A 23 
*END

*D_NET *60 0.0143242
*CONN
*I *1125:A I *D sky130_fd_sc_hd__buf_1
*I *1124:X O *D sky130_fd_sc_hd__mux2_1
*CAP
1 *1125:A 0
2 *1124:X 5.54573e-05
3 *60:22 0.00101011
4 *60:14 0.00444296
5 *60:10 0.00343284
6 *60:8 5.54573e-05
7 *60:8 *205:61 8.78864e-05
8 *60:14 *149:28 0.000193625
9 *60:14 *157:28 0.00195842
10 *60:14 *220:6 0.00175669
11 *60:14 *253:14 1.57659e-05
12 *60:22 *957:A 0.000458538
13 *60:22 *73:16 3.39192e-05
14 *60:22 *96:10 5.3304e-05
15 *60:22 *118:41 4.7102e-05
16 *60:22 *127:37 0
17 *60:22 *143:16 0.000137494
18 *60:22 *197:36 0
19 *60:22 *248:41 0.000579082
20 *59:18 *60:14 5.73087e-07
21 *59:18 *60:22 5.00562e-06
*RES
1 *1124:X *60:8 39.2014 
2 *60:8 *60:10 15 
3 *60:10 *60:14 48.9996 
4 *60:14 *60:22 49.7511 
5 *60:22 *1125:A 23 
*END

*D_NET *61 0.00328134
*CONN
*I *1127:A I *D sky130_fd_sc_hd__clkbuf_1
*I *1126:X O *D sky130_fd_sc_hd__mux2_1
*CAP
1 *1127:A 0.000155147
2 *1126:X 0.000463203
3 *61:8 0.00061835
4 *1127:A *73:16 0.000103637
5 *1127:A *235:20 0.000178227
6 *61:8 *239:70 0.000701171
7 *33:8 *1127:A 0.000305425
8 *44:10 *1127:A 5.50049e-05
9 *56:14 *61:8 0.000701171
*RES
1 *1126:X *61:8 48.3571 
2 *61:8 *1127:A 42.93 
*END

*D_NET *62 0.00640578
*CONN
*I *1129:A I *D sky130_fd_sc_hd__clkbuf_1
*I *1128:X O *D sky130_fd_sc_hd__mux2_1
*CAP
1 *1129:A 0
2 *1128:X 0.00199467
3 *62:14 9.38978e-05
4 *62:6 0.00208857
5 *62:6 *1192:A 6.27443e-05
6 *62:6 *83:82 1.46462e-05
7 *62:6 *241:8 8.27026e-05
8 *62:14 *146:8 7.83863e-05
9 *62:14 *177:18 8.04857e-05
10 *62:14 *236:39 9.41704e-05
11 *62:14 *247:36 9.65021e-05
12 *1128:S *62:6 9.36359e-05
13 *25:6 *62:6 0.000389267
14 *50:18 *62:6 0.00123611
*RES
1 *1128:X *62:6 48.8721 
2 *62:6 *62:14 32.2993 
3 *62:14 *1129:A 23 
*END

*D_NET *63 0.020289
*CONN
*I *1131:A I *D sky130_fd_sc_hd__clkbuf_2
*I *1130:Y O *D sky130_fd_sc_hd__nand3_1
*CAP
1 *1131:A 0.000382572
2 *1130:Y 8.01607e-05
3 *63:28 0.00582933
4 *63:10 0.00552692
5 *1131:A *1128:A0 0.000142173
6 *1131:A *1192:A 0.000129234
7 *1131:A *256:34 5.56356e-05
8 *63:10 *138:57 0.000119498
9 *63:10 *249:33 0
10 *63:28 *64:12 4.90973e-05
11 *63:28 *64:30 6.3559e-05
12 *63:28 *89:22 3.89083e-05
13 *63:28 *116:78 0.000370902
14 *63:28 *120:72 0.000172841
15 *63:28 *126:56 0.000487179
16 *63:28 *131:14 0.000187527
17 *63:28 *131:32 1.57852e-05
18 *63:28 *136:24 0.000253894
19 *63:28 *155:61 0.000172841
20 *63:28 *178:14 8.73121e-05
21 *63:28 *206:28 0.000168834
22 *63:28 *234:16 0.000196285
23 *63:28 *238:62 0.0026317
24 *63:28 *259:71 4.81059e-05
25 *63:28 *265:22 4.51815e-05
26 *63:28 *265:53 0.00301287
27 *24:24 *63:28 2.06628e-05
*RES
1 *1130:Y *63:10 47.7296 
2 *63:10 *63:28 39.5827 
3 *63:28 *1131:A 43.4064 
*END

*D_NET *64 0.0443244
*CONN
*I *1134:B I *D sky130_fd_sc_hd__and2_1
*I *1138:B I *D sky130_fd_sc_hd__and2_1
*I *1136:B I *D sky130_fd_sc_hd__and2_1
*I *1132:B I *D sky130_fd_sc_hd__and2_1
*I *1140:B I *D sky130_fd_sc_hd__and2_1
*I *1131:X O *D sky130_fd_sc_hd__clkbuf_2
*CAP
1 *1134:B 8.44805e-06
2 *1138:B 5.84944e-05
3 *1136:B 0
4 *1132:B 0
5 *1140:B 5.75198e-05
6 *1131:X 0.000849559
7 *64:96 0.000656103
8 *64:88 0.00288385
9 *64:68 0.0023341
10 *64:66 0.00247975
11 *64:51 0.00194773
12 *64:32 0.00200525
13 *64:30 0.00387057
14 *64:12 0.00704348
15 *1134:B *115:14 5.79413e-06
16 *1134:B *248:31 2.26497e-05
17 *1138:B *970:A 0.000138444
18 *1138:B *152:18 0.000180218
19 *1138:B *209:18 2.18409e-05
20 *1140:B *950:B 5.3304e-05
21 *1140:B *163:34 5.50049e-05
22 *1140:B *230:55 5.43589e-05
23 *1140:B *253:8 5.85486e-05
24 *64:12 *89:22 0.000293635
25 *64:12 *144:18 5.58152e-06
26 *64:12 *240:10 9.85586e-06
27 *64:30 *950:B 9.41704e-05
28 *64:30 *83:30 0.000276318
29 *64:30 *89:22 1.05155e-05
30 *64:30 *90:60 0.000271714
31 *64:30 *95:69 0.000260996
32 *64:30 *103:26 0.000167393
33 *64:30 *163:34 0.000110253
34 *64:30 *164:16 1.46462e-05
35 *64:30 *179:32 0.00099696
36 *64:30 *200:28 4.94803e-05
37 *64:30 *204:28 3.65791e-05
38 *64:30 *247:36 8.76403e-05
39 *64:30 *252:40 0.000765198
40 *64:30 *252:84 0.000714965
41 *64:30 *263:46 8.61904e-05
42 *64:30 *265:53 4.18768e-05
43 *64:30 *268:24 8.78604e-05
44 *64:30 *269:36 4.74508e-05
45 *64:51 *954:B_N 7.82039e-05
46 *64:51 *77:72 0
47 *64:51 *78:99 7.19218e-06
48 *64:51 *81:28 0
49 *64:51 *83:167 0
50 *64:51 *201:100 2.9131e-05
51 *64:51 *207:32 7.22953e-05
52 *64:51 *208:81 0.00143026
53 *64:51 *230:55 7.89973e-05
54 *64:51 *235:82 0.000120245
55 *64:51 *247:88 1.50004e-05
56 *64:51 *251:34 0
57 *64:51 *253:8 7.05435e-05
58 *64:66 *78:118 0.000638745
59 *64:66 *82:18 6.27734e-05
60 *64:66 *82:135 4.87093e-05
61 *64:66 *88:70 4.70804e-05
62 *64:66 *100:63 0.000138271
63 *64:66 *101:20 0.00224182
64 *64:66 *108:80 0.00041157
65 *64:66 *176:16 5.51845e-05
66 *64:66 *183:46 0.000183436
67 *64:66 *197:28 0.000387095
68 *64:66 *197:36 4.33608e-05
69 *64:66 *212:58 0
70 *64:66 *236:69 0.000125405
71 *64:66 *239:109 0.000498603
72 *64:66 *259:14 6.38838e-05
73 *64:66 *269:18 0.000300309
74 *64:68 *115:14 3.74378e-05
75 *64:68 *124:36 9.9437e-05
76 *64:68 *248:31 0.000193085
77 *64:88 *101:20 0.000315047
78 *64:88 *104:16 0.000310619
79 *64:88 *113:16 0.00059187
80 *64:88 *113:36 0.00036149
81 *64:88 *130:35 0.000128799
82 *64:88 *130:56 0.00130734
83 *64:88 *137:20 0.000907893
84 *64:88 *171:52 0.000119248
85 *64:88 *174:134 0.000333719
86 *64:88 *226:30 0.000583944
87 *64:88 *227:14 4.88568e-06
88 *64:96 *134:31 5.91105e-05
89 *64:96 *169:16 0.000156843
90 *64:96 *174:134 0.000128273
91 *64:96 *227:14 0.000435323
92 *1169:D *64:51 0
93 *3:21 *64:30 6.65036e-05
94 *27:16 *64:96 0.000137773
95 *32:12 *64:66 0.00119446
96 *32:36 *64:88 1.02995e-05
97 *32:52 *64:51 0
98 *44:22 *64:66 2.88764e-05
99 *45:8 *64:96 0.000337052
100 *46:20 *64:51 0
101 *63:28 *64:12 4.90973e-05
102 *63:28 *64:30 6.3559e-05
*RES
1 *1131:X *64:12 47.7509 
2 *64:12 *64:30 38.9298 
3 *64:30 *64:32 15 
4 *64:32 *1140:B 39.4707 
5 *64:32 *64:51 48.2257 
6 *64:51 *1132:B 23 
7 *64:12 *64:66 48.6437 
8 *64:66 *64:68 2.96214 
9 *64:68 *64:88 26.9133 
10 *64:88 *64:96 29.645 
11 *64:96 *1136:B 23 
12 *64:88 *1138:B 40.0507 
13 *64:68 *1134:B 38.3211 
*END

*D_NET *65 0.0187258
*CONN
*I *1133:A I *D sky130_fd_sc_hd__clkbuf_1
*I *1132:X O *D sky130_fd_sc_hd__and2_1
*CAP
1 *1133:A 0
2 *1132:X 0
3 *65:30 0.000465483
4 *65:18 0.00281071
5 *65:8 0.00327995
6 *65:4 0.000934723
7 *65:8 *941:A 9.92992e-06
8 *65:8 *78:99 0.00238912
9 *65:8 *82:177 0.00015022
10 *65:8 *83:146 5.01216e-05
11 *65:8 *83:152 9.39233e-05
12 *65:8 *84:6 0.000386034
13 *65:8 *108:8 0.000401569
14 *65:8 *155:111 0.000667452
15 *65:8 *235:60 4.98931e-05
16 *65:8 *235:74 1.8809e-05
17 *65:18 *1055:A3 2.12347e-06
18 *65:18 *82:177 0.000751503
19 *65:18 *85:57 1.16112e-05
20 *65:18 *109:64 5.97282e-05
21 *65:18 *110:70 0.000295792
22 *65:18 *116:23 0
23 *65:18 *123:80 0.00145608
24 *65:18 *127:37 0.000952459
25 *65:18 *131:32 8.00469e-05
26 *65:18 *168:20 0.000273111
27 *65:18 *181:10 2.23467e-05
28 *65:18 *181:26 0.000138108
29 *65:18 *194:10 4.18023e-05
30 *65:18 *200:28 0.000572452
31 *65:18 *221:33 0.00016941
32 *65:18 *235:54 0.00018717
33 *65:18 *242:24 0.000133821
34 *65:18 *251:86 0.000165669
35 *65:30 *121:73 0.000385307
36 *65:30 *145:27 0.000483374
37 *65:30 *234:65 0.000396836
38 *65:30 *234:73 6.56284e-05
39 *40:22 *65:30 0.000170268
40 *41:22 *65:30 1.4148e-05
41 *58:30 *65:8 0.000189049
*RES
1 *1132:X *65:4 23 
2 *65:4 *65:8 48.495 
3 *65:8 *65:18 48.8237 
4 *65:18 *65:30 38.1969 
5 *65:30 *1133:A 23 
*END

*D_NET *66 0.00589717
*CONN
*I *1135:A I *D sky130_fd_sc_hd__clkbuf_1
*I *1134:X O *D sky130_fd_sc_hd__and2_1
*CAP
1 *1135:A 0
2 *1134:X 0.00093326
3 *66:20 0.000999687
4 *66:6 0.00193295
5 *66:6 *137:24 0.0011019
6 *66:20 *1013:A 2.31591e-05
7 *66:20 *137:20 6.96212e-05
8 *66:20 *155:32 0.000825272
9 *66:20 *217:16 4.15283e-06
10 *66:20 *226:30 7.16875e-06
11 *66:20 *253:14 0
12 *36:22 *66:20 0
*RES
1 *1134:X *66:6 35.5321 
2 *66:6 *66:20 46.3643 
3 *66:20 *1135:A 23 
*END

*D_NET *67 0.0218742
*CONN
*I *1137:A I *D sky130_fd_sc_hd__buf_1
*I *1136:X O *D sky130_fd_sc_hd__and2_1
*CAP
1 *1137:A 0
2 *1136:X 0.0017202
3 *67:32 0.00313122
4 *67:22 0.00349376
5 *67:10 0.00171468
6 *67:8 0.00135214
7 *67:6 0.0017202
8 *67:6 *94:6 1.76095e-05
9 *67:6 *249:14 0.000269165
10 *67:10 *80:36 0.00112415
11 *67:10 *147:20 0.00310628
12 *67:10 *152:24 0.000248381
13 *67:10 *168:55 6.40765e-05
14 *67:22 *70:32 0.000113929
15 *67:22 *152:30 0.00018197
16 *67:22 *152:34 0.000577276
17 *67:22 *158:14 5.3304e-05
18 *67:22 *211:18 0.000276891
19 *67:32 *959:A3 0.000304686
20 *67:32 *1002:A0 1.05364e-05
21 *67:32 *81:28 0.000228663
22 *67:32 *100:20 1.58785e-05
23 *67:32 *108:30 0
24 *67:32 *109:50 0.000282583
25 *67:32 *141:10 0.000304686
26 *67:32 *160:18 0.00025477
27 *67:32 *163:51 7.9469e-05
28 *67:32 *222:30 8.72924e-05
29 *67:32 *247:71 5.19348e-05
30 *67:32 *254:20 0.000661924
31 *67:32 *254:45 0.000426566
*RES
1 *1136:X *67:6 46.0136 
2 *67:6 *67:8 15 
3 *67:8 *67:10 47.6843 
4 *67:10 *67:22 49.3411 
5 *67:22 *67:32 34.0785 
6 *67:32 *1137:A 23 
*END

*D_NET *68 0.00280872
*CONN
*I *1139:A I *D sky130_fd_sc_hd__clkbuf_1
*I *1138:X O *D sky130_fd_sc_hd__and2_1
*CAP
1 *1139:A 0.000306459
2 *1138:X 0.000370245
3 *68:8 0.000676703
4 *1139:A *84:89 4.15283e-06
5 *1139:A *169:29 0.000283177
6 *1139:A *233:90 0.000151657
7 *1139:A *250:52 0.00054014
8 *68:8 *209:18 0.000429948
9 *53:20 *1139:A 4.62362e-05
*RES
1 *1138:X *68:8 42.9093 
2 *68:8 *1139:A 45.8921 
*END

*D_NET *69 0.005683
*CONN
*I *1141:A I *D sky130_fd_sc_hd__clkbuf_1
*I *1140:X O *D sky130_fd_sc_hd__and2_1
*CAP
1 *1141:A 0
2 *1140:X 0.000383139
3 *69:14 0.000946814
4 *69:8 0.00132995
5 *69:8 *163:34 0.000717873
6 *69:8 *233:23 0.000596975
7 *69:8 *236:33 2.43944e-05
8 *69:14 *102:16 0.000300653
9 *69:14 *115:40 2.11157e-05
10 *69:14 *133:6 0.000299063
11 *69:14 *161:24 0.000220592
12 *69:14 *163:34 5.79413e-06
13 *69:14 *175:20 0.000233673
14 *69:14 *207:46 3.93904e-06
15 *69:14 *233:143 0.000256225
16 *69:14 *255:71 8.59806e-05
17 *22:18 *69:14 0.000256814
*RES
1 *1140:X *69:8 47.1971 
2 *69:8 *69:14 35.8386 
3 *69:14 *1141:A 23 
*END

*D_NET *70 0.0351199
*CONN
*I *1143:A I *D sky130_fd_sc_hd__clkbuf_2
*I *273:DIODE I *D sky130_fd_sc_hd__diode_2
*I *1142:X O *D sky130_fd_sc_hd__and3_1
*CAP
1 *1143:A 0.000154197
2 *273:DIODE 0
3 *1142:X 0.00129147
4 *70:32 0.00978851
5 *70:12 0.0109258
6 *1143:A *974:B 5.16555e-05
7 *1143:A *986:A1 7.22308e-05
8 *1143:A *124:67 8.50247e-05
9 *1143:A *125:20 0.000149675
10 *1143:A *127:37 7.26893e-06
11 *1143:A *235:20 2.0576e-05
12 *70:12 *147:6 0.000127052
13 *70:12 *152:42 0.000312986
14 *70:12 *153:43 6.10551e-06
15 *70:12 *211:18 0.0001485
16 *70:12 *219:20 0
17 *70:12 *249:48 0.000100139
18 *70:12 *249:54 4.15283e-06
19 *70:32 *80:36 3.43886e-05
20 *70:32 *101:20 5.45304e-05
21 *70:32 *101:26 0.000218894
22 *70:32 *113:16 2.98064e-05
23 *70:32 *127:37 1.68469e-05
24 *70:32 *152:34 0.000210277
25 *70:32 *158:10 0.000418211
26 *70:32 *168:55 0.000111445
27 *70:32 *173:30 0.000233674
28 *70:32 *189:32 0.00636944
29 *70:32 *190:30 0.00341499
30 *70:32 *211:18 0.000106911
31 *70:32 *211:26 0.000230783
32 *70:32 *221:43 0.000106894
33 *70:32 *229:16 0.000170069
34 *70:32 *235:20 3.35075e-05
35 *67:22 *70:32 0.000113929
*RES
1 *1142:X *70:12 49.2536 
2 *70:12 *70:32 38.4408 
3 *70:32 *273:DIODE 38 
4 *70:32 *1143:A 41.8529 
*END

*D_NET *71 0.0247349
*CONN
*I *1146:S I *D sky130_fd_sc_hd__mux2_1
*I *1148:S I *D sky130_fd_sc_hd__mux2_1
*I *1152:S I *D sky130_fd_sc_hd__mux2_1
*I *1144:S I *D sky130_fd_sc_hd__mux2_1
*I *1150:S I *D sky130_fd_sc_hd__mux2_1
*I *1143:X O *D sky130_fd_sc_hd__clkbuf_2
*CAP
1 *1146:S 0.000552455
2 *1148:S 0.000612978
3 *1152:S 0
4 *1144:S 0.000488496
5 *1150:S 0.000340623
6 *1143:X 0.000463178
7 *71:69 0.0012326
8 *71:47 0.000536708
9 *71:43 0.00203502
10 *71:20 0.00170781
11 *71:18 0.00176504
12 *71:14 0.00250373
13 *71:12 0.000649419
14 *1144:S *959:A3 0.000123215
15 *1144:S *1002:A0 4.96207e-05
16 *1144:S *1002:S 0.000102389
17 *1144:S *141:10 0.000593218
18 *1144:S *230:96 1.9054e-05
19 *1146:S *972:C1 2.2324e-05
20 *1146:S *1069:A 0.000298503
21 *1146:S *73:8 5.3304e-05
22 *1146:S *73:16 7.61324e-05
23 *1146:S *110:70 3.2402e-05
24 *1146:S *155:126 0.000124814
25 *1146:S *174:23 3.41998e-06
26 *1146:S *247:54 0.00011527
27 *1146:S *251:86 0
28 *1148:S *74:10 4.44894e-05
29 *1148:S *122:35 0.000269099
30 *1148:S *174:45 2.46906e-05
31 *1148:S *174:57 0.000486504
32 *1150:S *1150:A1 0.000255306
33 *1150:S *126:56 0.000142166
34 *1150:S *171:20 3.49851e-05
35 *1150:S *171:36 2.46906e-05
36 *1150:S *191:97 5.3304e-05
37 *1150:S *191:122 0.00020878
38 *1150:S *201:16 1.39668e-05
39 *1150:S *201:33 1.00493e-05
40 *71:12 *974:B 5.56356e-05
41 *71:12 *73:16 2.12347e-06
42 *71:12 *90:24 3.68335e-05
43 *71:12 *112:41 4.29341e-05
44 *71:12 *118:41 0.000546832
45 *71:12 *125:20 3.22465e-05
46 *71:12 *130:76 0.000600652
47 *71:12 *265:53 7.89973e-05
48 *71:14 *73:16 5.97612e-05
49 *71:14 *90:24 0.000202532
50 *71:14 *238:70 0.000268991
51 *71:14 *247:54 1.12487e-05
52 *71:14 *265:53 1.26108e-05
53 *71:18 *142:14 8.48502e-06
54 *71:18 *234:95 0.000184126
55 *71:18 *238:70 5.3304e-05
56 *71:18 *247:44 0.00161889
57 *71:43 *959:A3 0.000234918
58 *71:43 *76:16 9.58714e-05
59 *71:43 *77:43 2.33791e-05
60 *71:43 *93:43 6.61922e-05
61 *71:43 *98:30 1.75562e-05
62 *71:43 *122:16 0.000693783
63 *71:43 *126:56 0.000780572
64 *71:43 *155:61 1.58785e-05
65 *71:43 *174:67 0.000528281
66 *71:43 *191:122 0.000120273
67 *71:43 *230:96 2.31687e-05
68 *71:43 *237:43 0.000125942
69 *71:47 *959:A3 5.3304e-05
70 *71:47 *230:96 1.17318e-05
71 *71:69 *1015:A 0.000124129
72 *71:69 *77:49 0.000147441
73 *71:69 *77:87 0.000266131
74 *71:69 *235:74 4.4861e-06
75 *71:69 *271:49 0.000207886
76 *37:6 *1144:S 0.000699091
77 *49:76 *1148:S 0.000201511
78 *49:76 *71:69 4.05667e-05
79 *50:10 *1146:S 0.000366829
*RES
1 *1143:X *71:12 49.6 
2 *71:12 *71:14 4.72286 
3 *71:14 *71:18 38.49 
4 *71:18 *71:20 15 
5 *71:20 *1150:S 45.2914 
6 *71:20 *71:43 41.2243 
7 *71:43 *71:47 1.11857 
8 *71:47 *1144:S 36.05 
9 *71:47 *1152:S 23 
10 *71:43 *71:69 40.7093 
11 *71:69 *1148:S 35.0764 
12 *71:14 *1146:S 49.3721 
*END

*D_NET *72 0.0107299
*CONN
*I *1145:A I *D sky130_fd_sc_hd__clkbuf_1
*I *1144:X O *D sky130_fd_sc_hd__mux2_1
*CAP
1 *1145:A 0
2 *1144:X 0.00152634
3 *72:14 0.000916592
4 *72:6 0.00244293
5 *72:6 *87:10 9.5877e-05
6 *72:6 *201:110 0.00195256
7 *72:14 *109:30 0.000405139
8 *72:14 *139:18 0.000353394
9 *72:14 *153:12 0.000446228
10 *72:14 *153:20 1.02387e-05
11 *72:14 *239:10 0
12 *72:14 *239:22 0.000195251
13 *72:14 *254:45 0.000107313
14 *72:14 *266:28 0.000979582
15 *72:14 *266:51 7.69066e-05
16 *22:12 *72:14 0.00122151
*RES
1 *1144:X *72:6 46.0136 
2 *72:6 *72:14 45.2636 
3 *72:14 *1145:A 38 
*END

*D_NET *73 0.00686901
*CONN
*I *1147:A I *D sky130_fd_sc_hd__clkbuf_1
*I *1146:X O *D sky130_fd_sc_hd__mux2_1
*CAP
1 *1147:A 0
2 *1146:X 2.32701e-05
3 *73:16 0.00163779
4 *73:8 0.00166106
5 *73:8 *155:126 5.3304e-05
6 *73:16 *90:24 0.000500436
7 *73:16 *113:10 2.26497e-05
8 *73:16 *118:41 0
9 *73:16 *130:76 0.000156797
10 *73:16 *143:16 0.00135254
11 *73:16 *197:22 0.000570377
12 *73:16 *218:10 5.13257e-05
13 *1127:A *73:16 0.000103637
14 *1146:S *73:8 5.3304e-05
15 *1146:S *73:16 7.61324e-05
16 *32:12 *73:16 1.45672e-05
17 *40:22 *73:16 2.05503e-05
18 *44:10 *73:16 8.60929e-05
19 *50:10 *73:16 0.000389368
20 *60:22 *73:16 3.39192e-05
21 *71:12 *73:16 2.12347e-06
22 *71:14 *73:16 5.97612e-05
*RES
1 *1146:X *73:8 38.6214 
2 *73:8 *73:16 49.7793 
3 *73:16 *1147:A 23 
*END

*D_NET *74 0.00740495
*CONN
*I *1149:A I *D sky130_fd_sc_hd__buf_1
*I *1148:X O *D sky130_fd_sc_hd__mux2_1
*CAP
1 *1149:A 0
2 *1148:X 2.29409e-05
3 *74:10 0.00196772
4 *74:6 0.00199066
5 *74:10 *97:37 0.00218668
6 *74:10 *122:35 0.00052315
7 *1148:S *74:10 4.44894e-05
8 *49:76 *74:6 1.09903e-05
9 *49:76 *74:10 0.00065833
*RES
1 *1148:X *74:6 23.4971 
2 *74:6 *74:10 45.9029 
3 *74:10 *1149:A 23 
*END

*D_NET *75 0.00154971
*CONN
*I *1151:A I *D sky130_fd_sc_hd__buf_1
*I *1150:X O *D sky130_fd_sc_hd__mux2_1
*CAP
1 *1151:A 0
2 *1150:X 0.000344915
3 *75:8 0.000344915
4 *75:8 *1025:A2 0.000175444
5 *75:8 *93:53 2.49186e-05
6 *75:8 *119:75 7.11277e-05
7 *75:8 *169:47 4.06584e-05
8 *75:8 *248:23 2.98418e-05
9 *31:14 *75:8 0.000517889
*RES
1 *1150:X *75:8 45.54 
2 *75:8 *1151:A 38 
*END

*D_NET *76 0.0193694
*CONN
*I *1153:A I *D sky130_fd_sc_hd__buf_1
*I *1152:X O *D sky130_fd_sc_hd__mux2_1
*CAP
1 *1153:A 0
2 *1152:X 0.000714956
3 *76:38 0.00064297
4 *76:32 0.00570608
5 *76:16 0.00577807
6 *76:16 *87:36 0.000179568
7 *76:16 *97:16 3.41998e-06
8 *76:16 *98:30 2.32004e-05
9 *76:16 *98:72 0.000451143
10 *76:16 *98:79 8.11489e-05
11 *76:16 *208:36 0
12 *76:32 *953:A2 5.09387e-06
13 *76:32 *81:12 0.000333557
14 *76:32 *81:28 0.000655725
15 *76:32 *85:57 3.99457e-05
16 *76:32 *87:36 5.64492e-05
17 *76:32 *91:24 0.000119092
18 *76:32 *95:91 0
19 *76:32 *105:10 0.00017199
20 *76:32 *106:37 0.000123753
21 *76:32 *108:49 9.1086e-05
22 *76:32 *118:80 0.00019515
23 *76:32 *121:18 0
24 *76:32 *128:20 0.000221412
25 *76:32 *188:18 0.000100016
26 *76:32 *208:36 1.5891e-05
27 *76:32 *212:58 0.000257881
28 *76:32 *224:12 0.000108695
29 *76:32 *263:32 0.00101477
30 *76:38 *89:56 0.000408147
31 *76:38 *121:44 7.06078e-05
32 *76:38 *144:18 0.000924876
33 *76:38 *189:14 0.000226513
34 *76:38 *206:18 6.9188e-05
35 *76:38 *260:26 6.77187e-05
36 seg[2] *76:32 8.96587e-05
37 *17:8 *76:38 3.22041e-05
38 *39:24 *76:32 0.000217616
39 *48:12 *76:32 7.59366e-05
40 *71:43 *76:16 9.58714e-05
*RES
1 *1152:X *76:16 49.1857 
2 *76:16 *76:32 44.3796 
3 *76:32 *76:38 31.6025 
4 *76:38 *1153:A 23 
*END

*D_NET *77 0.036024
*CONN
*I *1003:D I *D sky130_fd_sc_hd__and4b_1
*I *936:A I *D sky130_fd_sc_hd__clkbuf_2
*I *975:D I *D sky130_fd_sc_hd__and4b_1
*I *955:A_N I *D sky130_fd_sc_hd__and2b_1
*I *979:A I *D sky130_fd_sc_hd__nor2_2
*I *949:C I *D sky130_fd_sc_hd__nand3b_4
*I *952:D I *D sky130_fd_sc_hd__and4bb_1
*I *963:C I *D sky130_fd_sc_hd__and3b_1
*I *1002:A1 I *D sky130_fd_sc_hd__mux2_2
*I *1007:D I *D sky130_fd_sc_hd__and4b_1
*I *935:X O *D sky130_fd_sc_hd__clkbuf_4
*CAP
1 *1003:D 8.3899e-05
2 *936:A 0
3 *975:D 0
4 *955:A_N 0
5 *979:A 9.88998e-05
6 *949:C 0
7 *952:D 4.99221e-05
8 *963:C 0
9 *1002:A1 0.000186847
10 *1007:D 0.00011334
11 *935:X 0.000355366
12 *77:178 0.00119525
13 *77:160 0.00031797
14 *77:145 0.00123037
15 *77:131 0.00156249
16 *77:121 0.0021016
17 *77:117 0.00061524
18 *77:109 0.000706985
19 *77:87 0.000877265
20 *77:72 0.000535462
21 *77:55 0.00102863
22 *77:49 0.00149324
23 *77:43 0.000926824
24 *77:35 0.00132177
25 *77:10 0.00115125
26 *77:6 0.000971753
27 *952:D *267:26 5.3304e-05
28 *979:A *112:57 8.16149e-05
29 *979:A *118:14 5.3304e-05
30 *1002:A1 *1002:S 0.000134407
31 *1002:A1 *235:82 0
32 *1003:D *1041:A1 7.6804e-05
33 *1003:D *82:30 0.000137005
34 *1003:D *218:22 0
35 *1007:D *83:82 5.3304e-05
36 *1007:D *236:39 5.05005e-05
37 *1007:D *247:36 4.29996e-06
38 *77:6 *1072:A 0.000351297
39 *77:6 *83:82 5.53064e-05
40 *77:6 *241:8 1.02535e-05
41 *77:10 *83:82 0.000290551
42 *77:10 *247:36 0
43 *77:35 *1063:A 1.3523e-05
44 *77:35 *83:30 1.56647e-05
45 *77:35 *83:61 5.42917e-05
46 *77:35 *90:34 0.000107778
47 *77:35 *90:84 7.13246e-05
48 *77:35 *146:8 2.99457e-05
49 *77:35 *155:80 0.000281259
50 *77:35 *172:22 2.18286e-05
51 *77:35 *173:38 8.63814e-05
52 *77:35 *228:10 5.09387e-06
53 *77:35 *234:148 0.000133941
54 *77:35 *234:163 5.79489e-05
55 *77:35 *236:49 5.43589e-05
56 *77:35 *237:43 0.000556735
57 *77:43 *88:54 0.000168411
58 *77:43 *93:43 0.00075501
59 *77:43 *122:16 0.000564738
60 *77:43 *170:31 0.00026382
61 *77:43 *237:43 0.000128032
62 *77:49 *83:130 1.05441e-05
63 *77:49 *87:26 9.9437e-05
64 *77:49 *88:54 5.50049e-05
65 *77:49 *110:53 4.30894e-05
66 *77:49 *141:10 2.98886e-05
67 *77:49 *170:31 5.3304e-05
68 *77:49 *210:53 3.04184e-05
69 *77:49 *230:96 0.000175418
70 *77:55 *93:37 4.21281e-05
71 *77:55 *235:82 0.000767399
72 *77:55 *267:38 0.000845121
73 *77:72 *1002:S 7.99224e-05
74 *77:72 *83:167 0.000183239
75 *77:72 *104:10 8.08272e-05
76 *77:72 *104:14 0.000145171
77 *77:72 *106:57 0.000866448
78 *77:72 *170:43 0.00113074
79 *77:87 *965:A 0.000346509
80 *77:87 *87:26 0.000104352
81 *77:87 *104:10 5.60133e-05
82 *77:87 *145:94 0.000521684
83 *77:87 *167:32 6.82197e-05
84 *77:87 *234:134 5.3304e-05
85 *77:87 *235:74 6.51336e-05
86 *77:87 *254:20 0
87 *77:87 *269:53 0.000106452
88 *77:109 *90:34 0.000471429
89 *77:109 *191:87 0.000316091
90 *77:109 *198:28 0
91 *77:109 *209:63 0.000179993
92 *77:109 *234:91 4.99354e-05
93 *77:109 *247:44 2.43944e-05
94 *77:117 *1041:A1 6.17437e-06
95 *77:117 *78:51 0.000162713
96 *77:117 *82:30 0.000219094
97 *77:117 *201:72 0.000200926
98 *77:117 *218:22 0.000188259
99 *77:117 *257:37 0.000387091
100 *77:121 *235:31 0.000172549
101 *77:121 *239:70 0.000109179
102 *77:131 *114:10 0.00023627
103 *77:131 *145:27 0.000653647
104 *77:131 *235:20 0.000480988
105 *77:131 *235:31 3.73771e-05
106 *77:131 *239:70 0.000749318
107 *77:131 *268:30 0.000159763
108 *77:145 *112:57 0.000555548
109 *77:145 *118:14 0.000179725
110 *77:145 *235:20 0.000112143
111 *77:145 *259:14 0.000487853
112 *77:145 *268:30 7.00301e-05
113 *77:160 *82:54 3.39102e-05
114 *77:160 *82:62 3.1116e-05
115 *77:160 *183:30 0.000116559
116 *77:160 *190:30 0
117 *77:160 *236:110 4.86272e-05
118 *77:178 *996:A 6.70361e-05
119 *77:178 *78:16 2.03764e-06
120 *77:178 *81:132 0.000227728
121 *77:178 *108:65 6.39527e-05
122 *77:178 *135:6 0.000103825
123 *77:178 *234:73 0.000202089
124 *21:34 *77:87 0.000231973
125 *31:10 *77:145 9.08709e-06
126 *33:8 *77:145 4.32935e-05
127 *33:16 *77:145 0.000442504
128 *40:22 *77:178 1.78697e-05
129 *49:76 *77:49 0
130 *49:110 *77:160 4.81905e-05
131 *56:14 *77:117 1.16112e-05
132 *57:36 *77:121 6.8999e-05
133 *64:51 *77:72 0
134 *71:43 *77:43 2.33791e-05
135 *71:69 *77:49 0.000147441
136 *71:69 *77:87 0.000266131
*RES
1 *935:X *77:6 27.9093 
2 *77:6 *77:10 3.97714 
3 *77:10 *1007:D 25.2009 
4 *77:10 *77:35 45.3079 
5 *77:35 *77:43 44.065 
6 *77:43 *77:49 21.0486 
7 *77:49 *77:55 39.6736 
8 *77:55 *1002:A1 40.5271 
9 *77:55 *77:72 31.5507 
10 *77:72 *963:C 23 
11 *77:49 *77:87 47.1514 
12 *77:87 *952:D 38.6214 
13 *77:43 *949:C 23 
14 *77:6 *77:109 37.9957 
15 *77:109 *77:117 38.3064 
16 *77:117 *77:121 18.3143 
17 *77:121 *77:131 33.3891 
18 *77:131 *77:145 46.7009 
19 *77:145 *979:A 25.0714 
20 *77:145 *77:160 35.7793 
21 *77:160 *955:A_N 23 
22 *77:131 *975:D 23 
23 *77:121 *77:178 30.5564 
24 *77:178 *936:A 23 
25 *77:117 *1003:D 25.2009 
*END

*D_NET *78 0.0353181
*CONN
*I *1010:A_N I *D sky130_fd_sc_hd__and2b_1
*I *954:A I *D sky130_fd_sc_hd__or2b_2
*I *966:A_N I *D sky130_fd_sc_hd__and3b_1
*I *1009:A1 I *D sky130_fd_sc_hd__o21a_1
*I *937:A I *D sky130_fd_sc_hd__clkbuf_1
*I *936:X O *D sky130_fd_sc_hd__clkbuf_2
*CAP
1 *1010:A_N 0
2 *954:A 0
3 *966:A_N 3.69794e-05
4 *1009:A1 0
5 *937:A 0
6 *936:X 0.000460181
7 *78:118 0.000644272
8 *78:99 0.0018964
9 *78:97 0.00256239
10 *78:84 0.00235533
11 *78:67 0.000917909
12 *78:51 0.00311067
13 *78:36 0.000972465
14 *78:30 0.00201821
15 *78:16 0.00238155
16 *78:6 0.00189985
17 *966:A_N *95:103 9.58714e-05
18 *966:A_N *225:10 9.41704e-05
19 *78:6 *996:A 8.48502e-06
20 *78:6 *135:6 0.000517111
21 *78:16 *996:A 1.59094e-05
22 *78:16 *234:73 0.000340818
23 *78:16 *257:37 2.00313e-05
24 *78:16 *267:8 9.41704e-05
25 *78:30 *81:72 1.87002e-05
26 *78:30 *100:63 2.37336e-05
27 *78:30 *131:32 0.000993061
28 *78:30 *191:54 0.0002354
29 *78:30 *191:79 1.09832e-05
30 *78:30 *236:134 1.98035e-05
31 *78:30 *243:20 0.000170663
32 *78:30 *257:49 0.000362397
33 *78:36 *978:A 0.000496863
34 *78:36 *978:B 0.000495163
35 *78:36 *126:20 0.000329573
36 *78:36 *149:18 6.85726e-05
37 *78:36 *175:37 0.000106671
38 *78:36 *220:30 3.54658e-05
39 *78:36 *239:70 0
40 *78:36 *257:49 0.000306898
41 *78:51 *1117:D_N 4.82958e-05
42 *78:51 *81:72 0.000621746
43 *78:51 *131:32 1.87002e-05
44 *78:51 *235:54 0.000317905
45 *78:51 *238:62 4.51815e-05
46 *78:51 *257:37 9.03851e-06
47 *78:67 *1178:CLK 4.96303e-05
48 *78:67 *89:22 0.000539308
49 *78:67 *90:42 5.00586e-05
50 *78:67 *95:69 3.87221e-06
51 *78:67 *141:53 5.56356e-05
52 *78:67 *227:71 2.21614e-05
53 *78:67 *234:163 1.5526e-05
54 *78:67 *252:40 2.2396e-05
55 *78:67 *252:84 0.000419182
56 *78:84 *1097:A1 0.000147101
57 *78:84 *81:12 8.76318e-05
58 *78:84 *81:28 0.000239489
59 *78:84 *81:72 0.000844864
60 *78:84 *85:57 8.93318e-05
61 *78:84 *109:64 3.60156e-05
62 *78:84 *109:85 4.24018e-05
63 *78:84 *150:83 3.83198e-05
64 *78:84 *155:98 2.64114e-05
65 *78:84 *235:54 0.000463475
66 *78:84 *254:20 0
67 *78:84 *256:22 0.000120161
68 *78:97 *84:22 0
69 *78:97 *155:98 0.000198514
70 *78:97 *155:111 0.000584851
71 *78:97 *174:41 3.87221e-06
72 *78:97 *201:90 0.000275576
73 *78:97 *201:145 0
74 *78:99 *83:152 3.91951e-06
75 *78:99 *247:88 0.000236102
76 *78:118 *83:48 0.000520674
77 *78:118 *197:36 0.000637909
78 *78:118 *223:42 0.000225607
79 *41:22 *78:16 0
80 *41:22 *78:67 7.28888e-05
81 *51:14 *78:118 0.000288236
82 *55:14 *78:36 2.08008e-05
83 *56:14 *78:16 9.2133e-05
84 *56:14 *78:36 0
85 *56:14 *78:51 0.000200185
86 *57:36 *78:16 0.000135037
87 *58:30 *78:97 0
88 *59:18 *78:36 0.000131383
89 *64:51 *78:99 7.19218e-06
90 *64:66 *78:118 0.000638745
91 *65:8 *78:99 0.00238912
92 *77:117 *78:51 0.000162713
93 *77:178 *78:16 2.03764e-06
*RES
1 *936:X *78:6 29.3386 
2 *78:6 *78:16 27.1696 
3 *78:16 *78:30 35.0501 
4 *78:30 *78:36 36.5532 
5 *78:36 *937:A 23 
6 *78:16 *78:51 20.6403 
7 *78:51 *78:67 39.7833 
8 *78:67 *1009:A1 23 
9 *78:51 *78:84 25.11 
10 *78:84 *966:A_N 39.0979 
11 *78:84 *78:97 27.1179 
12 *78:97 *78:99 30.16 
13 *78:99 *954:A 23 
14 *78:6 *78:118 47.8557 
15 *78:118 *1010:A_N 23 
*END

*D_NET *79 0.0101115
*CONN
*I *938:A I *D sky130_fd_sc_hd__buf_1
*I *937:X O *D sky130_fd_sc_hd__clkbuf_1
*CAP
1 *938:A 0.000438799
2 *937:X 0.00125624
3 *79:16 0.00169743
4 *79:6 0.00251487
5 *938:A *1170:CLK 0.000202947
6 *938:A *129:36 0.000156585
7 *938:A *155:14 3.27668e-05
8 *938:A *255:12 0.0001784
9 *79:6 *215:14 0.0019774
10 *79:16 *1170:CLK 6.61962e-05
11 *79:16 *116:96 0.000594337
12 *79:16 *183:22 5.63799e-05
13 *79:16 *184:22 4.96811e-06
14 *79:16 *185:8 0
15 *79:16 *253:14 0
16 *272:DIODE *938:A 7.0127e-05
17 *1170:D *79:16 0.000126844
18 *26:28 *79:16 0
19 *45:24 *79:6 0.000359435
20 *49:18 *938:A 0.000142678
21 *49:35 *938:A 5.3304e-05
22 *57:103 *938:A 0.000181797
*RES
1 *937:X *79:6 44.5843 
2 *79:6 *79:16 49.3057 
3 *79:16 *938:A 33.1914 
*END

*D_NET *80 0.0318211
*CONN
*I *939:A I *D sky130_fd_sc_hd__buf_2
*I *938:X O *D sky130_fd_sc_hd__buf_1
*CAP
1 *939:A 0
2 *938:X 0.000575576
3 *80:36 0.011185
4 *80:14 0.0117606
5 *80:14 *131:44 0.000570442
6 *80:14 *161:42 2.05503e-05
7 *80:36 *1101:B 0
8 *80:36 *81:12 4.42329e-05
9 *80:36 *85:57 6.19194e-05
10 *80:36 *94:18 2.16954e-05
11 *80:36 *101:20 0
12 *80:36 *109:50 0.00298942
13 *80:36 *109:85 2.86444e-05
14 *80:36 *147:20 0.000420584
15 *80:36 *152:24 0.000100781
16 *80:36 *155:94 0.000145754
17 *80:36 *163:51 0.000158111
18 *80:36 *168:55 0.000161898
19 *80:36 *189:32 0.00159019
20 *80:36 *190:30 0
21 *80:36 *200:28 4.76944e-05
22 *80:36 *235:54 4.51815e-05
23 *80:36 *243:20 1.18829e-05
24 *80:36 *254:45 0.000182984
25 *80:36 *267:14 0.000141472
26 *26:28 *80:14 0.000303656
27 *26:28 *80:36 2.82971e-05
28 *44:22 *80:36 4.33237e-05
29 *53:20 *80:14 2.26497e-05
30 *67:10 *80:36 0.00112415
31 *70:32 *80:36 3.43886e-05
*RES
1 *938:X *80:14 47.8051 
2 *80:14 *80:36 41.6084 
3 *80:36 *939:A 38 
*END

*D_NET *81 0.0465503
*CONN
*I *1117:A I *D sky130_fd_sc_hd__or4b_1
*I *1037:B1 I *D sky130_fd_sc_hd__o21ai_1
*I *991:B1 I *D sky130_fd_sc_hd__o21a_2
*I *1130:A I *D sky130_fd_sc_hd__nand3_1
*I *944:A I *D sky130_fd_sc_hd__xor2_1
*I *1142:A I *D sky130_fd_sc_hd__and3_1
*I *939:X O *D sky130_fd_sc_hd__buf_2
*CAP
1 *1117:A 0.000101681
2 *1037:B1 0
3 *991:B1 0.000304777
4 *1130:A 0
5 *944:A 0.000108026
6 *1142:A 0
7 *939:X 0.000231814
8 *81:142 0.000914633
9 *81:132 0.00160591
10 *81:122 0.000792959
11 *81:100 0.00180718
12 *81:92 0.0028753
13 *81:88 0.0014155
14 *81:72 0.00244328
15 *81:38 0.00140406
16 *81:28 0.0040697
17 *81:12 0.00458055
18 *944:A *110:14 0.000115237
19 *991:B1 *84:83 3.22051e-05
20 *991:B1 *96:28 0.000133848
21 *991:B1 *116:96 0.000322282
22 *991:B1 *138:30 7.3184e-05
23 *1117:A *1117:C 4.77164e-06
24 *1117:A *82:40 2.26497e-05
25 *1117:A *156:18 5.99567e-06
26 *1117:A *268:30 7.45306e-06
27 *81:12 *85:57 1.05206e-05
28 *81:12 *194:10 2.33476e-05
29 *81:12 *235:54 0.00012361
30 *81:12 *267:14 2.33476e-05
31 *81:28 *1002:S 1.93472e-05
32 *81:28 *85:57 5.20545e-05
33 *81:28 *87:26 0.00082208
34 *81:28 *91:24 0.000125272
35 *81:28 *108:30 0.000210779
36 *81:28 *110:53 0.000134969
37 *81:28 *160:18 0.000125479
38 *81:28 *222:30 0.000493004
39 *81:28 *236:156 0.000257439
40 *81:28 *236:173 0.000416069
41 *81:28 *251:61 2.50122e-05
42 *81:28 *254:20 0.000360115
43 *81:28 *261:24 0.000612807
44 *81:38 *97:45 0.000530022
45 *81:38 *106:80 0.000902885
46 *81:38 *108:30 0.000366619
47 *81:38 *109:50 0.000124741
48 *81:38 *130:39 0.00111301
49 *81:38 *152:42 1.59071e-05
50 *81:38 *222:30 0.000829447
51 *81:38 *233:189 9.11042e-05
52 *81:38 *249:48 5.68958e-05
53 *81:72 *100:63 0.000104553
54 *81:72 *108:49 4.81059e-05
55 *81:72 *109:64 0.000724099
56 *81:72 *120:105 0.000150509
57 *81:72 *131:32 6.18147e-05
58 *81:72 *157:12 0.000267836
59 *81:72 *191:79 0.000192848
60 *81:72 *236:134 8.63073e-06
61 *81:72 *237:78 0.000150509
62 *81:72 *257:37 2.79505e-05
63 *81:72 *263:32 0.0001638
64 *81:72 *268:24 0.000170177
65 *81:88 *100:63 0.000109188
66 *81:88 *145:27 5.56279e-05
67 *81:88 *145:35 0.000202747
68 *81:88 *157:12 0.000225409
69 *81:88 *212:42 0.000210337
70 *81:88 *227:53 0.000175131
71 *81:88 *234:16 0.000170521
72 *81:88 *250:68 0.000156523
73 *81:92 *212:42 0.00092291
74 *81:92 *227:33 0.000422183
75 *81:92 *227:53 1.11624e-05
76 *81:92 *250:64 5.24457e-05
77 *81:100 *964:A 6.12304e-05
78 *81:100 *1130:B 6.58043e-05
79 *81:100 *82:100 0.000514391
80 *81:100 *96:28 0.000355586
81 *81:100 *96:36 2.36242e-05
82 *81:100 *116:96 0.000109264
83 *81:100 *123:42 1.24376e-05
84 *81:100 *202:27 0.000289279
85 *81:100 *233:12 0.000135335
86 *81:132 *82:40 0.000147167
87 *81:132 *127:37 9.7654e-05
88 *81:132 *231:28 5.99567e-06
89 *81:132 *234:73 0.000394764
90 *81:132 *235:20 1.61501e-05
91 *81:132 *235:31 4.10426e-05
92 *81:132 *255:48 0.000265265
93 *81:142 *1080:A 3.15669e-05
94 *81:142 *176:8 0.000862666
95 *81:142 *206:18 1.12796e-05
96 *81:142 *206:28 0.000303624
97 *81:142 *235:10 0.000342063
98 *1116:A *81:92 0.000862266
99 *1169:D *81:28 4.60157e-05
100 *1182:RESET_B *81:142 0.000146398
101 *22:18 *944:A 5.3304e-05
102 *24:8 *1117:A 2.12347e-06
103 *24:8 *81:132 2.12919e-05
104 *26:34 *81:100 0.000379968
105 *29:24 *81:92 0.00135398
106 *35:8 *81:88 2.98405e-05
107 *46:20 *81:28 1.66113e-05
108 *47:10 *944:A 0.000117328
109 *55:14 *1117:A 9.23705e-06
110 *55:14 *81:132 1.98354e-05
111 *57:36 *81:132 4.61835e-05
112 *57:50 *81:88 8.30566e-06
113 *57:50 *81:132 2.51697e-05
114 *64:51 *81:28 0
115 *67:32 *81:28 0.000228663
116 *76:32 *81:12 0.000333557
117 *76:32 *81:28 0.000655725
118 *77:178 *81:132 0.000227728
119 *78:30 *81:72 1.87002e-05
120 *78:51 *81:72 0.000621746
121 *78:84 *81:12 8.76318e-05
122 *78:84 *81:28 0.000239489
123 *78:84 *81:72 0.000844864
124 *80:36 *81:12 4.42329e-05
*RES
1 *939:X *81:12 47.064 
2 *81:12 *81:28 26.158 
3 *81:28 *81:38 49.0785 
4 *81:38 *1142:A 23 
5 *81:28 *944:A 48.3511 
6 *81:12 *81:72 39.4696 
7 *81:72 *81:88 35.0335 
8 *81:88 *81:92 37.5371 
9 *81:92 *81:100 42.3429 
10 *81:100 *1130:A 23 
11 *81:92 *991:B1 44.4629 
12 *81:72 *81:122 8 
13 *81:122 *81:132 44.4689 
14 *81:132 *81:142 33.4357 
15 *81:142 *1037:B1 23 
16 *81:122 *1117:A 39.3775 
*END

*D_NET *82 0.0596301
*CONN
*I *1037:A1 I *D sky130_fd_sc_hd__o21ai_1
*I *958:A I *D sky130_fd_sc_hd__nor2_1
*I *963:A_N I *D sky130_fd_sc_hd__and3b_1
*I *966:B I *D sky130_fd_sc_hd__and3b_1
*I *945:B1 I *D sky130_fd_sc_hd__a21oi_1
*I *1117:B I *D sky130_fd_sc_hd__or4b_1
*I *979:B I *D sky130_fd_sc_hd__nor2_2
*I *1130:C I *D sky130_fd_sc_hd__nand3_1
*I *991:A1 I *D sky130_fd_sc_hd__o21a_2
*I *943:B I *D sky130_fd_sc_hd__and3_1
*I *940:X O *D sky130_fd_sc_hd__clkbuf_4
*CAP
1 *1037:A1 0
2 *958:A 2.76276e-05
3 *963:A_N 0
4 *966:B 0.00050021
5 *945:B1 0
6 *1117:B 0
7 *979:B 0
8 *1130:C 0
9 *991:A1 4.48441e-05
10 *943:B 0.000193964
11 *940:X 0.000352247
12 *82:205 0.000534421
13 *82:185 0.000582991
14 *82:177 0.00367251
15 *82:162 0.00462787
16 *82:154 0.00158933
17 *82:135 0.00151256
18 *82:100 0.00140818
19 *82:79 0.00207044
20 *82:66 0.00090405
21 *82:62 0.00189602
22 *82:54 0.00295547
23 *82:40 0.00158254
24 *82:30 0.00169246
25 *82:18 0.00293324
26 *82:12 0.00193496
27 *82:8 0.0010706
28 *943:B *134:37 0.000153317
29 *958:A *97:60 1.46286e-05
30 *966:B *84:22 2.43944e-05
31 *966:B *95:103 9.88574e-06
32 *966:B *105:6 2.05038e-05
33 *966:B *225:10 5.3304e-05
34 *991:A1 *84:89 9.58714e-05
35 *991:A1 *138:30 4.67488e-05
36 *82:8 *127:27 2.50118e-05
37 *82:8 *260:46 0.000449314
38 *82:12 *88:78 4.64674e-05
39 *82:12 *89:44 6.16282e-05
40 *82:12 *89:66 0.000133462
41 *82:12 *125:59 0
42 *82:12 *216:79 0
43 *82:12 *240:10 0.00123137
44 *82:12 *243:20 0.000427583
45 *82:18 *90:8 0.000141128
46 *82:18 *108:65 3.65882e-05
47 *82:18 *108:80 0.000329542
48 *82:18 *124:67 0.000180841
49 *82:18 *125:6 6.58415e-06
50 *82:18 *176:16 8.57577e-05
51 *82:18 *212:58 0.000257005
52 *82:18 *223:34 5.88378e-06
53 *82:30 *1041:A1 4.35676e-05
54 *82:30 *1041:S 5.45541e-05
55 *82:30 *100:77 7.14493e-05
56 *82:30 *118:59 0.000153798
57 *82:30 *218:22 0.000164512
58 *82:40 *121:73 4.67488e-05
59 *82:40 *145:35 0.000434129
60 *82:40 *255:48 0.000269286
61 *82:54 *100:63 0.000213943
62 *82:54 *138:24 0.000173357
63 *82:54 *141:34 0.000668921
64 *82:54 *151:27 0.00024109
65 *82:54 *157:18 0.000342561
66 *82:54 *183:30 0.000236768
67 *82:54 *247:18 2.04511e-05
68 *82:62 *1164:CLK 6.29725e-05
69 *82:62 *205:49 0.00127774
70 *82:66 *239:56 0
71 *82:79 *85:8 0
72 *82:79 *150:22 6.98816e-05
73 *82:79 *151:8 0.000639476
74 *82:79 *155:26 3.14886e-05
75 *82:79 *220:30 0
76 *82:100 *964:A 0.000310571
77 *82:100 *1130:B 5.54435e-05
78 *82:100 *96:28 0
79 *82:100 *96:36 0.000106717
80 *82:100 *150:22 0.000509278
81 *82:100 *153:26 0
82 *82:100 *162:22 0.00032219
83 *82:100 *175:12 2.26406e-05
84 *82:100 *209:10 3.87394e-05
85 *82:100 *255:20 0.000230295
86 *82:100 *255:63 0.000570582
87 *82:100 *258:10 6.2403e-05
88 *82:135 *83:94 0.000166949
89 *82:135 *88:70 1.23319e-05
90 *82:135 *121:18 0.00102989
91 *82:135 *131:14 8.43956e-05
92 *82:135 *183:46 0.00102737
93 *82:135 *193:8 8.43625e-05
94 *82:135 *239:109 0.000276639
95 *82:135 *239:130 8.79977e-05
96 *82:135 *242:24 7.5475e-05
97 *82:154 *86:12 0.000357265
98 *82:154 *88:70 3.27348e-05
99 *82:154 *97:60 2.93335e-05
100 *82:154 *193:8 0.000398019
101 *82:154 *223:10 4.67488e-05
102 *82:162 *1029:B1_N 3.3123e-05
103 *82:162 *83:113 1.05441e-05
104 *82:162 *97:10 8.4047e-05
105 *82:162 *105:6 5.74317e-06
106 *82:162 *128:28 0.000680325
107 *82:162 *167:38 0.000105563
108 *82:162 *207:18 2.19581e-05
109 *82:162 *256:34 0
110 *82:177 *1055:A3 0.000105599
111 *82:177 *85:57 0.000130211
112 *82:177 *90:100 0.00169025
113 *82:177 *116:23 8.68113e-05
114 *82:177 *136:24 0.0040397
115 *82:177 *207:32 0.000121551
116 *82:177 *211:18 5.01588e-05
117 *82:177 *219:20 0
118 *82:185 *104:14 0.000175903
119 *82:185 *106:65 0
120 *82:185 *185:47 0
121 *82:185 *233:189 0.000610049
122 *82:205 *90:8 0.000293233
123 *82:205 *106:10 0.000166522
124 *82:205 *128:12 1.27508e-05
125 *82:205 *180:39 0.000114083
126 *82:205 *212:58 1.14452e-05
127 *1003:D *82:30 0.000137005
128 *1117:A *82:40 2.26497e-05
129 *26:34 *82:100 0.000240862
130 *27:20 *82:62 0.000154032
131 *49:35 *82:79 2.46108e-05
132 *49:110 *82:54 1.27069e-05
133 *49:110 *82:62 0.000152911
134 *55:8 *82:30 5.3304e-05
135 *55:14 *82:40 0.000128528
136 *56:26 *82:135 4.96982e-05
137 *56:26 *82:154 3.90213e-05
138 *57:36 *82:18 2.05503e-05
139 *57:36 *82:135 0.000184742
140 *57:50 *82:40 0.000179931
141 *57:87 *82:79 0.000577325
142 *57:87 *82:100 6.53015e-05
143 *64:66 *82:18 6.27734e-05
144 *64:66 *82:135 4.87093e-05
145 *65:8 *82:177 0.00015022
146 *65:18 *82:177 0.000751503
147 *77:117 *82:30 0.000219094
148 *77:160 *82:54 3.39102e-05
149 *77:160 *82:62 3.1116e-05
150 *81:100 *82:100 0.000514391
151 *81:132 *82:40 0.000147167
*RES
1 *940:X *82:8 43.3857 
2 *82:8 *82:12 32.0479 
3 *82:12 *82:18 27.2214 
4 *82:18 *82:30 31.675 
5 *82:30 *82:40 41.1236 
6 *82:40 *82:54 36.6671 
7 *82:54 *82:62 41.3693 
8 *82:62 *82:66 16.2014 
9 *82:66 *943:B 41.0036 
10 *82:66 *82:79 13.0914 
11 *82:79 *991:A1 39.0979 
12 *82:79 *82:100 47.6664 
13 *82:100 *1130:C 23 
14 *82:54 *979:B 38 
15 *82:30 *1117:B 23 
16 *82:18 *82:135 41.4124 
17 *82:135 *945:B1 38 
18 *82:135 *82:154 25.7507 
19 *82:154 *82:162 45.5564 
20 *82:162 *966:B 28.3857 
21 *82:162 *82:177 42.528 
22 *82:177 *82:185 34.1754 
23 *82:185 *963:A_N 23 
24 *82:154 *958:A 23.6214 
25 *82:12 *82:205 38.5964 
26 *82:205 *1037:A1 23 
*END

*D_NET *83 0.0446776
*CONN
*I *942:A I *D sky130_fd_sc_hd__clkbuf_4
*I *963:B I *D sky130_fd_sc_hd__and3b_1
*I *1002:S I *D sky130_fd_sc_hd__mux2_2
*I *954:B_N I *D sky130_fd_sc_hd__or2b_2
*I *952:C I *D sky130_fd_sc_hd__and4bb_1
*I *949:B I *D sky130_fd_sc_hd__nand3b_4
*I *958:B I *D sky130_fd_sc_hd__nor2_1
*I *1005:A I *D sky130_fd_sc_hd__or3_2
*I *1007:B I *D sky130_fd_sc_hd__and4b_1
*I *1010:B I *D sky130_fd_sc_hd__and2b_1
*I *941:X O *D sky130_fd_sc_hd__clkbuf_4
*CAP
1 *942:A 2.35907e-05
2 *963:B 0
3 *1002:S 0.000245434
4 *954:B_N 0.000265503
5 *952:C 0
6 *949:B 0
7 *958:B 0
8 *1005:A 3.74845e-05
9 *1007:B 0
10 *1010:B 0
11 *941:X 6.03598e-05
12 *83:188 0.000504936
13 *83:167 0.0014109
14 *83:152 0.00133886
15 *83:146 0.00143551
16 *83:130 0.000119918
17 *83:113 0.000465977
18 *83:94 0.00214421
19 *83:82 0.00232588
20 *83:61 0.000770238
21 *83:48 0.000825319
22 *83:42 0.00188631
23 *83:30 0.00285288
24 *83:20 0.00305809
25 *83:10 0.00155095
26 *83:8 0.00137901
27 *954:B_N *207:32 0
28 *954:B_N *247:88 7.89237e-05
29 *1002:S *959:A3 0.000102389
30 *1005:A *1191:A 0.000146822
31 *1005:A *116:39 5.40337e-05
32 *83:8 *84:14 3.39192e-05
33 *83:8 *108:10 1.64154e-05
34 *83:8 *235:74 9.28078e-06
35 *83:10 *91:24 4.59051e-05
36 *83:10 *108:10 0.000127594
37 *83:10 *235:74 2.05503e-05
38 *83:10 *269:53 0.000272355
39 *83:20 *87:26 0.000289683
40 *83:20 *91:24 6.82841e-05
41 *83:20 *110:41 5.51822e-06
42 *83:20 *120:72 1.87002e-05
43 *83:20 *146:24 0
44 *83:20 *154:18 0
45 *83:20 *200:28 0.00076198
46 *83:20 *266:51 7.44705e-05
47 *83:20 *269:53 6.82841e-05
48 *83:20 *271:68 0.000615097
49 *83:30 *120:72 0.00104713
50 *83:30 *155:61 0.000315825
51 *83:30 *234:148 9.03084e-05
52 *83:30 *247:36 9.00011e-05
53 *83:30 *252:40 0.000703652
54 *83:30 *269:36 2.47015e-05
55 *83:42 *121:73 4.15283e-06
56 *83:42 *141:34 8.84366e-05
57 *83:42 *177:18 0
58 *83:42 *192:18 0.000132743
59 *83:42 *198:16 0.000693712
60 *83:42 *227:53 0.000327235
61 *83:42 *234:148 0.000128291
62 *83:42 *236:49 0.000124188
63 *83:42 *236:69 2.30481e-05
64 *83:48 *112:47 0.00145295
65 *83:48 *121:34 8.29264e-05
66 *83:48 *149:6 0.00140262
67 *83:48 *223:42 0.000197266
68 *83:48 *223:50 0.000739272
69 *83:48 *243:20 8.50366e-05
70 *83:61 *236:49 1.05887e-05
71 *83:61 *269:36 2.26497e-05
72 *83:82 *1007:A_N 2.02872e-05
73 *83:82 *95:69 0.000172889
74 *83:82 *198:28 4.34007e-05
75 *83:82 *234:163 0.00018118
76 *83:82 *236:39 9.21573e-05
77 *83:82 *237:63 0.000177871
78 *83:82 *241:8 7.51453e-06
79 *83:94 *127:53 0.000667437
80 *83:94 *198:28 6.48561e-05
81 *83:94 *237:63 6.9663e-05
82 *83:94 *237:78 5.05605e-05
83 *83:94 *242:24 0.000172574
84 *83:94 *245:14 0.00171109
85 *83:94 *256:34 2.33476e-05
86 *83:94 *268:41 0.000106971
87 *83:113 *108:49 4.36547e-05
88 *83:113 *119:12 0.000359529
89 *83:113 *150:60 0.000357205
90 *83:113 *185:61 0.000210669
91 *83:113 *186:14 4.15283e-06
92 *83:113 *207:18 5.23981e-05
93 *83:113 *224:12 0
94 *83:113 *256:34 0.000406503
95 *83:130 *160:18 0.000272615
96 *83:130 *210:53 1.20476e-05
97 *83:130 *222:30 0.000266817
98 *83:130 *230:96 5.09387e-06
99 *83:146 *84:6 0.000599561
100 *83:167 *88:27 0
101 *83:188 *93:16 0.000735225
102 *83:188 *93:37 0.000435371
103 *83:188 *102:16 3.39272e-05
104 *83:188 *167:22 0.000767524
105 *83:188 *233:189 0.000114776
106 *1002:A1 *1002:S 0.000134407
107 *1007:D *83:82 5.3304e-05
108 *1144:S *1002:S 0.000102389
109 *21:18 *83:42 9.57388e-05
110 *21:34 *83:20 0.000131427
111 *25:6 *83:82 1.46286e-05
112 *34:26 *83:30 0.000128618
113 *39:24 *83:113 9.31842e-05
114 *46:20 *1002:S 0.000243881
115 *46:20 *83:167 0.000139732
116 *50:18 *83:82 7.89984e-05
117 *58:22 *83:167 0
118 *62:6 *83:82 1.46462e-05
119 *64:30 *83:30 0.000276318
120 *64:51 *954:B_N 7.82039e-05
121 *64:51 *83:167 0
122 *65:8 *83:146 5.01216e-05
123 *65:8 *83:152 9.39233e-05
124 *77:6 *83:82 5.53064e-05
125 *77:10 *83:82 0.000290551
126 *77:35 *83:30 1.56647e-05
127 *77:35 *83:61 5.42917e-05
128 *77:49 *83:130 1.05441e-05
129 *77:72 *1002:S 7.99224e-05
130 *77:72 *83:167 0.000183239
131 *78:99 *83:152 3.91951e-06
132 *78:118 *83:48 0.000520674
133 *81:28 *1002:S 1.93472e-05
134 *82:135 *83:94 0.000166949
135 *82:162 *83:113 1.05441e-05
*RES
1 *941:X *83:8 39.2014 
2 *83:8 *83:10 5.77929 
3 *83:10 *83:20 20.4171 
4 *83:20 *83:30 21.8258 
5 *83:30 *83:42 34.9893 
6 *83:42 *83:48 42.55 
7 *83:48 *1010:B 38 
8 *83:30 *83:61 16.9471 
9 *83:61 *1007:B 23 
10 *83:61 *83:82 42.5943 
11 *83:82 *83:94 39.4444 
12 *83:94 *1005:A 39.5743 
13 *83:94 *83:113 42.6979 
14 *83:113 *958:B 38 
15 *83:20 *83:130 31.8493 
16 *83:130 *949:B 23 
17 *83:10 *952:C 38 
18 *83:8 *83:146 29.4379 
19 *83:146 *83:152 20.5307 
20 *83:152 *954:B_N 41.9979 
21 *83:152 *83:167 10.005 
22 *83:167 *1002:S 43.3857 
23 *83:167 *83:188 44.5621 
24 *83:188 *963:B 38 
25 *83:146 *942:A 23.4971 
*END

*D_NET *84 0.0409434
*CONN
*I *1055:A1 I *D sky130_fd_sc_hd__o31a_1
*I *966:C I *D sky130_fd_sc_hd__and3b_1
*I *945:A2 I *D sky130_fd_sc_hd__a21oi_1
*I *1037:A2 I *D sky130_fd_sc_hd__o21ai_1
*I *1105:B I *D sky130_fd_sc_hd__and3_1
*I *991:A2 I *D sky130_fd_sc_hd__o21a_2
*I *943:C I *D sky130_fd_sc_hd__and3_1
*I *947:B I *D sky130_fd_sc_hd__xor2_1
*I *1117:C I *D sky130_fd_sc_hd__or4b_1
*I *942:X O *D sky130_fd_sc_hd__clkbuf_4
*CAP
1 *1055:A1 0.000246028
2 *966:C 4.99221e-05
3 *945:A2 0.000457639
4 *1037:A2 0
5 *1105:B 0
6 *991:A2 0
7 *943:C 9.16955e-05
8 *947:B 0.00044081
9 *1117:C 0.000101963
10 *942:X 0.000298998
11 *84:147 0.000537889
12 *84:130 0.00118912
13 *84:128 0.00135856
14 *84:89 0.00125869
15 *84:83 0.00112789
16 *84:81 0.00127295
17 *84:67 0.00201814
18 *84:46 0.0016235
19 *84:38 0.00172493
20 *84:32 0.00173571
21 *84:26 0.000711263
22 *84:22 0.000945479
23 *84:14 0.00189452
24 *84:6 0.00102824
25 *943:C *85:8 5.20619e-06
26 *943:C *134:37 2.38569e-05
27 *945:A2 *178:71 0.00030849
28 *947:B *85:8 0
29 *947:B *134:31 5.3304e-05
30 *947:B *134:37 0.000525002
31 *947:B *239:50 2.02872e-05
32 *947:B *239:56 8.32612e-05
33 *966:C *95:103 5.3304e-05
34 *1055:A1 *1055:A2 4.95081e-05
35 *1055:A1 *1055:A3 1.40958e-05
36 *1055:A1 *1055:B1 0.000300817
37 *1117:C *234:16 0
38 *1117:C *268:30 0.000131383
39 *84:6 *108:8 0.000401569
40 *84:14 *1055:B1 0.0011082
41 *84:14 *108:10 3.18198e-05
42 *84:14 *141:66 4.81913e-05
43 *84:22 *95:103 9.5877e-05
44 *84:22 *155:111 0
45 *84:22 *159:18 0.000351824
46 *84:22 *194:10 0
47 *84:22 *221:33 0
48 *84:22 *225:10 1.6152e-05
49 *84:22 *235:60 8.11987e-05
50 *84:22 *236:207 0
51 *84:22 *257:18 0
52 *84:22 *267:14 0.000167729
53 *84:26 *159:18 5.93338e-05
54 *84:26 *201:72 5.14824e-05
55 *84:32 *112:91 0.00010529
56 *84:32 *150:75 0.000129184
57 *84:32 *155:94 6.29993e-05
58 *84:32 *159:18 0.00030215
59 *84:32 *178:71 8.73233e-05
60 *84:32 *201:72 0.000755135
61 *84:38 *155:94 0.000297545
62 *84:38 *179:32 0.000195859
63 *84:38 *196:22 8.72309e-05
64 *84:38 *230:77 0.00040621
65 *84:38 *267:14 0.00110667
66 *84:46 *1062:A3 0.000504541
67 *84:46 *192:22 0.000543701
68 *84:46 *198:24 5.3304e-05
69 *84:46 *198:28 3.18198e-05
70 *84:46 *234:8 1.05441e-05
71 *84:46 *234:16 0
72 *84:46 *268:30 2.47211e-05
73 *84:67 *119:75 6.65013e-06
74 *84:67 *120:72 2.55053e-05
75 *84:67 *157:12 5.99068e-05
76 *84:67 *198:24 6.56284e-05
77 *84:67 *201:16 0.000485228
78 *84:67 *236:49 2.64768e-05
79 *84:67 *236:134 6.77129e-05
80 *84:67 *247:18 4.51815e-05
81 *84:67 *269:26 0.000272607
82 *84:81 *119:75 1.73694e-05
83 *84:81 *120:47 0.000548937
84 *84:81 *120:72 0.000523929
85 *84:81 *155:61 0.000286772
86 *84:83 *130:10 0.000170602
87 *84:83 *130:56 5.3304e-05
88 *84:83 *138:30 0.00120812
89 *84:83 *231:12 0.000599293
90 *84:89 *85:8 0
91 *84:89 *130:10 0.000517801
92 *84:89 *138:30 0.000142235
93 *84:89 *155:22 3.24541e-05
94 *84:89 *233:90 4.70292e-05
95 *84:89 *250:52 0.000117578
96 *84:128 *1056:B1 0.000187062
97 *84:128 *1056:C1 0.000342939
98 *84:128 *1062:A3 4.17736e-05
99 *84:128 *89:44 0.000231208
100 *84:128 *112:30 9.78729e-06
101 *84:128 *118:59 0.000231196
102 *84:128 *130:84 0.000111215
103 *84:128 *192:22 0.000300834
104 *84:128 *195:6 0.000672484
105 *84:128 *206:28 5.47103e-05
106 *84:128 *250:78 4.95487e-06
107 *84:130 *89:44 0.00014029
108 *84:130 *100:77 0.000311958
109 *84:130 *239:130 1.47795e-05
110 *84:147 *1080:A 0.000107682
111 *84:147 *128:12 1.42282e-05
112 *84:147 *166:28 0.000115228
113 *84:147 *180:6 5.85822e-06
114 *84:147 *180:31 0.0001786
115 *84:147 *239:130 3.06803e-05
116 *84:147 *245:16 0.000309185
117 *966:B *84:22 2.43944e-05
118 *991:A1 *84:89 9.58714e-05
119 *991:B1 *84:83 3.22051e-05
120 *1117:A *1117:C 4.77164e-06
121 *1139:A *84:89 4.15283e-06
122 *21:18 *84:67 2.30431e-05
123 *24:24 *84:67 0.000854961
124 *40:22 *84:81 7.47571e-05
125 *49:18 *84:89 0.000450113
126 *49:51 *84:81 0.000653201
127 *53:20 *947:B 0
128 *53:20 *84:89 0
129 *57:103 *84:89 0.000169429
130 *65:8 *84:6 0.000386034
131 *78:97 *84:22 0
132 *83:8 *84:14 3.39192e-05
133 *83:146 *84:6 0.000599561
*RES
1 *942:X *84:6 35.0557 
2 *84:6 *84:14 45.7221 
3 *84:14 *84:22 46.0329 
4 *84:22 *84:26 15.8493 
5 *84:26 *84:32 28.1121 
6 *84:32 *84:38 45.9914 
7 *84:38 *84:46 23.5136 
8 *84:46 *1117:C 39.9057 
9 *84:46 *84:67 46.2273 
10 *84:67 *84:81 49.9209 
11 *84:81 *84:83 14.9143 
12 *84:83 *84:89 31.0432 
13 *84:89 *947:B 46.5654 
14 *84:89 *943:C 39.6468 
15 *84:83 *991:A2 23 
16 *84:38 *84:128 46.9029 
17 *84:128 *84:130 8.72071 
18 *84:130 *1105:B 23 
19 *84:130 *84:147 39.9221 
20 *84:147 *1037:A2 23 
21 *84:32 *945:A2 30.3121 
22 *84:26 *966:C 38.6214 
23 *84:14 *1055:A1 28.4064 
*END

*D_NET *85 0.0265527
*CONN
*I *946:A I *D sky130_fd_sc_hd__nor2_1
*I *944:B I *D sky130_fd_sc_hd__xor2_1
*I *943:X O *D sky130_fd_sc_hd__and3_1
*CAP
1 *946:A 0
2 *944:B 0
3 *943:X 0.000564462
4 *85:63 0.000664882
5 *85:57 0.00444106
6 *85:30 6.45186e-05
7 *85:20 0.00636528
8 *85:8 0.00308904
9 *85:8 *155:26 0.000104025
10 *85:8 *155:133 3.32253e-05
11 *85:20 *95:18 0.00146446
12 *85:20 *98:30 0.000772052
13 *85:20 *113:36 0.000181081
14 *85:20 *175:37 7.23578e-05
15 *85:20 *185:20 0.000206862
16 *85:20 *226:30 0.000574863
17 *85:20 *235:98 0.000113346
18 *85:30 *110:14 7.38638e-05
19 *85:30 *173:30 2.47789e-05
20 *85:30 *208:81 1.89815e-05
21 *85:57 *88:12 0.000149046
22 *85:57 *95:91 0.000372252
23 *85:57 *98:30 0.000493519
24 *85:57 *106:53 0.000151406
25 *85:57 *109:85 4.83836e-05
26 *85:57 *110:41 0.000157276
27 *85:57 *116:23 0.000144869
28 *85:57 *128:28 4.67998e-05
29 *85:57 *128:44 1.87522e-05
30 *85:57 *141:14 0.000794054
31 *85:57 *141:66 6.11832e-05
32 *85:57 *168:20 0.000467082
33 *85:57 *235:54 1.79829e-05
34 *85:57 *235:98 0.000221337
35 *85:57 *247:71 0.000724333
36 *85:57 *254:20 0.00164808
37 *85:57 *254:45 4.51815e-05
38 *85:57 *269:53 4.93791e-05
39 *85:63 *86:12 0.000616413
40 *85:63 *121:10 0.000137651
41 *85:63 *167:38 1.03836e-05
42 *85:63 *263:18 4.05745e-05
43 *85:63 *263:84 8.40718e-05
44 *943:C *85:8 5.20619e-06
45 *947:B *85:8 0
46 *39:24 *85:30 4.51815e-05
47 *44:22 *85:20 0.000388781
48 *48:38 *85:8 7.57281e-06
49 *49:18 *85:8 7.70695e-05
50 *49:35 *85:8 0.000304119
51 *65:18 *85:57 1.16112e-05
52 *76:32 *85:57 3.99457e-05
53 *78:84 *85:57 8.93318e-05
54 *80:36 *85:57 6.19194e-05
55 *81:12 *85:57 1.05206e-05
56 *81:28 *85:57 5.20545e-05
57 *82:79 *85:8 0
58 *82:177 *85:57 0.000130211
59 *84:89 *85:8 0
*RES
1 *943:X *85:8 48.1811 
2 *85:8 *85:20 23.3453 
3 *85:20 *85:30 32.1243 
4 *85:30 *944:B 23 
5 *85:20 *85:57 48.9487 
6 *85:57 *85:63 28.0293 
7 *85:63 *946:A 23 
*END

*D_NET *86 0.00363034
*CONN
*I *946:B I *D sky130_fd_sc_hd__nor2_1
*I *945:Y O *D sky130_fd_sc_hd__a21oi_1
*CAP
1 *946:B 0
2 *945:Y 0
3 *86:12 0.00075428
4 *86:6 0.00075428
5 *86:12 *122:62 0.000178221
6 *86:12 *167:38 0.000121803
7 *86:12 *193:8 0.000287593
8 *86:12 *197:14 0.000556537
9 *86:12 *218:10 3.95159e-06
10 *82:154 *86:12 0.000357265
11 *85:63 *86:12 0.000616413
*RES
1 *945:Y *86:6 38 
2 *86:6 *86:12 35.3414 
3 *86:12 *946:B 23 
*END

*D_NET *87 0.00937515
*CONN
*I *953:A1 I *D sky130_fd_sc_hd__a211o_1
*I *948:Y O *D sky130_fd_sc_hd__inv_2
*CAP
1 *953:A1 0
2 *948:Y 0.00104492
3 *87:36 0.000282525
4 *87:26 0.00134589
5 *87:10 0.00210828
6 *87:10 *959:A3 0.00129384
7 *87:10 *201:110 4.49877e-05
8 *87:26 *98:30 0.000177423
9 *87:26 *110:41 8.39961e-05
10 *87:26 *128:44 0.000177423
11 *87:26 *141:10 6.56284e-05
12 *87:26 *210:53 1.92812e-05
13 *87:26 *235:74 9.07097e-05
14 *87:26 *254:20 0.000828982
15 *87:36 *953:A2 1.05441e-05
16 *87:36 *88:54 0
17 *87:36 *91:24 0.00014449
18 *87:36 *97:16 8.78765e-06
19 *72:6 *87:10 9.5877e-05
20 *76:16 *87:36 0.000179568
21 *76:32 *87:36 5.64492e-05
22 *77:49 *87:26 9.9437e-05
23 *77:87 *87:26 0.000104352
24 *81:28 *87:26 0.00082208
25 *83:20 *87:26 0.000289683
*RES
1 *948:Y *87:10 39.5093 
2 *87:10 *87:26 45.0427 
3 *87:26 *87:36 27.5054 
4 *87:36 *953:A1 23 
*END

*D_NET *88 0.030804
*CONN
*I *953:A2 I *D sky130_fd_sc_hd__a211o_1
*I *1004:A2 I *D sky130_fd_sc_hd__a211o_1
*I *976:A2 I *D sky130_fd_sc_hd__a211o_2
*I *1008:A2 I *D sky130_fd_sc_hd__a211o_1
*I *983:A I *D sky130_fd_sc_hd__dlymetal6s2s_1
*I *949:Y O *D sky130_fd_sc_hd__nand3b_4
*CAP
1 *953:A2 0.000262495
2 *1004:A2 9.22796e-05
3 *976:A2 7.08536e-05
4 *1008:A2 0.00158473
5 *983:A 0.000247666
6 *949:Y 2.18824e-05
7 *88:78 0.00130498
8 *88:70 0.00216939
9 *88:64 0.00172372
10 *88:54 0.00220848
11 *88:27 0.0025007
12 *88:12 0.00168349
13 *88:6 0.00160697
14 *953:A2 *953:B1 8.42832e-05
15 *953:A2 *188:10 1.61989e-05
16 *953:A2 *222:30 2.05503e-05
17 *976:A2 *976:A1 3.77412e-05
18 *976:A2 *144:26 1.21972e-05
19 *976:A2 *244:16 9.41704e-05
20 *983:A *93:37 0.000489308
21 *983:A *122:8 1.00493e-05
22 *983:A *167:22 0.000550841
23 *1004:A2 *142:14 0.000296771
24 *1004:A2 *238:70 0.000309209
25 *1008:A2 *1015:C 0.00210811
26 *1008:A2 *90:106 5.43072e-05
27 *1008:A2 *152:46 9.8971e-06
28 *88:12 *949:A_N 9.78293e-05
29 *88:12 *106:53 0.000128569
30 *88:12 *128:44 6.51997e-06
31 *88:12 *132:10 2.3191e-05
32 *88:12 *170:31 9.02364e-05
33 *88:12 *236:194 0.000338337
34 *88:27 *1015:A 0
35 *88:27 *90:100 0
36 *88:27 *106:53 6.22951e-05
37 *88:27 *154:8 0
38 *88:27 *236:194 0.000348358
39 *88:54 *953:B1 2.05503e-05
40 *88:54 *90:84 6.09979e-06
41 *88:54 *90:100 0.000166289
42 *88:54 *93:43 0.000211883
43 *88:54 *145:73 0.000166289
44 *88:54 *170:31 7.13587e-05
45 *88:54 *173:30 0.000161393
46 *88:54 *196:41 8.99145e-06
47 *88:64 *1042:A3 7.65063e-05
48 *88:64 *119:12 0.000941061
49 *88:64 *174:23 0.000224162
50 *88:64 *181:10 0.000724017
51 *88:64 *256:18 0.000567004
52 *88:70 *142:14 0.00034107
53 *88:70 *197:14 0.000106452
54 *88:70 *197:28 5.94125e-05
55 *88:70 *218:10 0.00113696
56 *88:70 *238:70 0.000339369
57 *88:70 *239:109 0.000464964
58 *88:70 *252:84 0.000117021
59 *88:78 *89:66 1.46589e-05
60 *88:78 *90:24 0.000367681
61 *88:78 *121:34 0
62 *88:78 *125:59 0.000485775
63 *88:78 *206:28 0.000594275
64 *88:78 *223:34 0.00104464
65 *88:78 *243:20 0
66 *88:78 *244:16 0.000156496
67 *39:24 *88:54 0.000746187
68 *49:76 *88:54 0.000214335
69 *58:22 *88:27 7.57576e-05
70 *64:66 *88:70 4.70804e-05
71 *76:32 *953:A2 5.09387e-06
72 *77:43 *88:54 0.000168411
73 *77:49 *88:54 5.50049e-05
74 *82:12 *88:78 4.64674e-05
75 *82:135 *88:70 1.23319e-05
76 *82:154 *88:70 3.27348e-05
77 *83:167 *88:27 0
78 *85:57 *88:12 0.000149046
79 *87:36 *953:A2 1.05441e-05
80 *87:36 *88:54 0
*RES
1 *949:Y *88:6 23.4971 
2 *88:6 *88:12 24.8393 
3 *88:12 *983:A 44.8357 
4 *88:12 *88:27 29.5829 
5 *88:27 *1008:A2 49.7214 
6 *88:6 *88:54 41.1359 
7 *88:54 *88:64 49.3679 
8 *88:64 *88:70 35.3 
9 *88:70 *88:78 40.4786 
10 *88:78 *976:A2 39.595 
11 *88:70 *1004:A2 26.48 
12 *88:54 *953:A2 41.6664 
*END

*D_NET *89 0.0261282
*CONN
*I *1004:B1 I *D sky130_fd_sc_hd__a211o_1
*I *951:A I *D sky130_fd_sc_hd__clkbuf_2
*I *976:B1 I *D sky130_fd_sc_hd__a211o_2
*I *950:Y O *D sky130_fd_sc_hd__nor3b_2
*CAP
1 *1004:B1 0
2 *951:A 0.00025584
3 *976:B1 0
4 *950:Y 8.90671e-05
5 *89:88 0.000214439
6 *89:66 0.000170588
7 *89:56 0.000794013
8 *89:48 0.00117902
9 *89:44 0.00111935
10 *89:22 0.0053513
11 *89:10 0.00440634
12 *951:A *90:8 6.68919e-05
13 *951:A *243:20 0.000136743
14 *89:10 *950:A 5.64582e-05
15 *89:10 *106:95 9.58709e-05
16 *89:22 *95:91 0.000186137
17 *89:22 *109:64 0.00020347
18 *89:22 *119:46 0.000222398
19 *89:22 *119:56 0.00199383
20 *89:22 *121:18 0.000265645
21 *89:22 *141:53 8.732e-05
22 *89:22 *204:12 0.00132063
23 *89:22 *204:28 0.00214106
24 *89:22 *206:28 0
25 *89:22 *223:34 0
26 *89:22 *230:77 7.3121e-05
27 *89:22 *242:24 0.00023858
28 *89:22 *252:40 7.24387e-05
29 *89:22 *252:84 0.000433064
30 *89:44 *90:24 0
31 *89:44 *100:77 0.000138607
32 *89:44 *121:34 7.45036e-05
33 *89:44 *239:130 4.51797e-05
34 *89:44 *240:10 0.000445219
35 *89:44 *242:24 0.000177188
36 *89:44 *243:20 3.64337e-05
37 *89:44 *250:78 0.000361607
38 *89:48 *90:8 2.02872e-05
39 *89:48 *243:20 0.000394505
40 *89:56 *988:C 0.000291359
41 *89:56 *144:18 2.13834e-05
42 *89:56 *206:18 0.000748114
43 *89:66 *125:59 0
44 *89:66 *144:26 1.94973e-05
45 *89:88 *110:105 0.000175903
46 *89:88 *250:78 8.29264e-05
47 *89:88 *260:18 3.76854e-05
48 *37:10 *89:10 1.24585e-05
49 *63:28 *89:22 3.89083e-05
50 *64:12 *89:22 0.000293635
51 *64:30 *89:22 1.05155e-05
52 *76:38 *89:56 0.000408147
53 *78:67 *89:22 0.000539308
54 *82:12 *89:44 6.16282e-05
55 *82:12 *89:66 0.000133462
56 *84:128 *89:44 0.000231208
57 *84:130 *89:44 0.00014029
58 *88:78 *89:66 1.46589e-05
*RES
1 *950:Y *89:10 47.3775 
2 *89:10 *89:22 23.3254 
3 *89:22 *89:44 48.3736 
4 *89:44 *89:48 19.9093 
5 *89:48 *89:56 44.4379 
6 *89:56 *89:66 33.0243 
7 *89:66 *976:B1 23 
8 *89:48 *951:A 26.9564 
9 *89:22 *89:88 48.2521 
10 *89:88 *1004:B1 23 
*END

*D_NET *90 0.0395561
*CONN
*I *953:B1 I *D sky130_fd_sc_hd__a211o_1
*I *1008:B1 I *D sky130_fd_sc_hd__a211o_1
*I *1053:B I *D sky130_fd_sc_hd__or2_1
*I *1081:A I *D sky130_fd_sc_hd__clkbuf_1
*I *951:X O *D sky130_fd_sc_hd__clkbuf_2
*CAP
1 *953:B1 0.000457276
2 *1008:B1 0
3 *1053:B 0
4 *1081:A 0
5 *951:X 0.000337606
6 *90:106 0.000335332
7 *90:100 0.00290427
8 *90:84 0.0036506
9 *90:70 0.00103385
10 *90:60 0.00265036
11 *90:42 0.0019757
12 *90:34 0.00285666
13 *90:24 0.00299223
14 *90:8 0.00145675
15 *953:B1 *91:24 2.33476e-05
16 *953:B1 *92:10 1.24376e-05
17 *953:B1 *120:88 4.19026e-05
18 *953:B1 *159:18 0.000105347
19 *953:B1 *161:76 3.17711e-05
20 *953:B1 *222:30 0.0002231
21 *90:8 *125:6 3.22051e-05
22 *90:8 *243:20 0.000521424
23 *90:24 *100:63 0.000148887
24 *90:24 *121:34 4.36401e-06
25 *90:24 *121:73 0.000133119
26 *90:24 *130:76 0.000201598
27 *90:24 *206:28 7.55154e-05
28 *90:24 *212:58 0.000190943
29 *90:34 *110:105 0.000342939
30 *90:34 *227:53 5.25827e-05
31 *90:34 *227:71 0.000102221
32 *90:34 *234:91 3.54759e-05
33 *90:34 *236:49 0.000265928
34 *90:34 *247:44 7.01569e-05
35 *90:42 *1178:CLK 9.65021e-05
36 *90:42 *103:32 3.59414e-05
37 *90:42 *103:43 0.000434132
38 *90:42 *141:53 0.000180212
39 *90:42 *165:6 0.000782606
40 *90:42 *234:163 0.000138607
41 *90:60 *103:26 1.51463e-05
42 *90:60 *103:32 0.000323776
43 *90:60 *162:38 0.000230271
44 *90:60 *164:16 2.43944e-05
45 *90:60 *165:6 0.000590461
46 *90:60 *185:20 0.000609533
47 *90:60 *265:53 0.000157538
48 *90:70 *120:26 0.000145467
49 *90:70 *161:42 0.000322199
50 *90:70 *175:12 0.0001412
51 *90:70 *175:20 0.000378459
52 *90:70 *205:22 0.000165963
53 *90:70 *212:30 0.000309417
54 *90:84 *119:40 0.000161741
55 *90:84 *168:32 0.00015844
56 *90:84 *172:22 5.78554e-05
57 *90:84 *173:38 4.36452e-05
58 *90:84 *227:71 0
59 *90:84 *251:14 5.13423e-05
60 *90:84 *257:10 3.39637e-05
61 *90:100 *141:18 0.000573073
62 *90:100 *146:24 0.000239976
63 *90:100 *168:32 0.000631142
64 *90:100 *168:49 0.00046256
65 *90:100 *173:30 8.79918e-05
66 *90:100 *196:41 3.3405e-05
67 *90:100 *207:32 0.000479857
68 *90:106 *1015:C 0.000937597
69 *90:106 *152:46 0.00179357
70 *951:A *90:8 6.68919e-05
71 *953:A2 *953:B1 8.42832e-05
72 *1008:A2 *90:106 5.43072e-05
73 *3:21 *90:60 0.000339209
74 *24:24 *90:70 3.4915e-06
75 *32:52 *90:60 5.6515e-05
76 *40:22 *90:24 2.55744e-05
77 *40:22 *90:70 1.08164e-05
78 *49:18 *90:70 5.64898e-05
79 *53:20 *90:70 0.000313825
80 *57:36 *90:24 3.31551e-05
81 *64:30 *90:60 0.000271714
82 *71:12 *90:24 3.68335e-05
83 *71:14 *90:24 0.000202532
84 *73:16 *90:24 0.000500436
85 *77:35 *90:34 0.000107778
86 *77:35 *90:84 7.13246e-05
87 *77:109 *90:34 0.000471429
88 *78:67 *90:42 5.00586e-05
89 *82:18 *90:8 0.000141128
90 *82:177 *90:100 0.00169025
91 *82:205 *90:8 0.000293233
92 *88:27 *90:100 0
93 *88:54 *953:B1 2.05503e-05
94 *88:54 *90:84 6.09979e-06
95 *88:54 *90:100 0.000166289
96 *88:78 *90:24 0.000367681
97 *89:44 *90:24 0
98 *89:48 *90:8 2.02872e-05
*RES
1 *951:X *90:8 47.6736 
2 *90:8 *90:24 45.0262 
3 *90:24 *90:34 39.4221 
4 *90:34 *90:42 26.2686 
5 *90:42 *90:60 47.3131 
6 *90:60 *90:70 37.6207 
7 *90:70 *1081:A 23 
8 *90:42 *1053:B 23 
9 *90:34 *90:84 10.0982 
10 *90:84 *90:100 41.48 
11 *90:100 *90:106 35.1757 
12 *90:106 *1008:B1 23 
13 *90:84 *953:B1 46.0682 
*END

*D_NET *91 0.00427011
*CONN
*I *953:C1 I *D sky130_fd_sc_hd__a211o_1
*I *952:X O *D sky130_fd_sc_hd__and4bb_1
*CAP
1 *953:C1 0
2 *952:X 5.73458e-05
3 *91:24 0.000985661
4 *91:8 0.00104301
5 *91:8 *208:73 0.000181801
6 *91:8 *267:26 0.000181801
7 *91:24 *1058:B 0.000227317
8 *91:24 *97:16 0
9 *91:24 *108:10 0.000388814
10 *91:24 *108:18 0.000142733
11 *91:24 *108:49 0.000183524
12 *91:24 *120:88 2.29099e-05
13 *91:24 *208:36 7.07958e-05
14 *91:24 *222:30 0.000107082
15 *91:24 *251:61 3.85652e-06
16 *91:24 *269:53 0.000147073
17 *953:B1 *91:24 2.33476e-05
18 *76:32 *91:24 0.000119092
19 *81:28 *91:24 0.000125272
20 *83:10 *91:24 4.59051e-05
21 *83:20 *91:24 6.82841e-05
22 *87:36 *91:24 0.00014449
*RES
1 *952:X *91:8 40.0507 
2 *91:8 *91:24 44.511 
3 *91:24 *953:C1 23 
*END

*D_NET *92 0.0021076
*CONN
*I *959:A1 I *D sky130_fd_sc_hd__a31o_2
*I *953:X O *D sky130_fd_sc_hd__a211o_1
*CAP
1 *959:A1 0.000126469
2 *953:X 0.000527354
3 *92:10 0.000653824
4 *959:A1 *1058:C 0.000135037
5 *92:10 *959:B1 5.64492e-05
6 *92:10 *103:43 8.87486e-05
7 *92:10 *120:72 2.05503e-05
8 *92:10 *120:76 4.05745e-05
9 *92:10 *159:18 2.44078e-05
10 *92:10 *160:18 2.26406e-05
11 *92:10 *161:10 9.28078e-06
12 *92:10 *170:31 0.000135037
13 *92:10 *251:61 4.54806e-05
14 *92:10 *261:14 2.51323e-05
15 *92:10 *261:33 0.000184176
16 *953:B1 *92:10 1.24376e-05
*RES
1 *953:X *92:10 46.2029 
2 *92:10 *959:A1 39.5743 
*END

*D_NET *93 0.0200797
*CONN
*I *959:A2 I *D sky130_fd_sc_hd__a31o_2
*I *1025:A1 I *D sky130_fd_sc_hd__a31o_1
*I *981:A1 I *D sky130_fd_sc_hd__a31oi_4
*I *954:X O *D sky130_fd_sc_hd__or2b_2
*CAP
1 *959:A2 0.000196831
2 *1025:A1 0
3 *981:A1 0
4 *954:X 0.000579846
5 *93:53 0.00013464
6 *93:43 0.00199161
7 *93:37 0.00276209
8 *93:22 0.00130381
9 *93:16 0.00189341
10 *93:12 0.00129788
11 *93:10 0.000579846
12 *959:A2 *959:A3 0.000178517
13 *959:A2 *98:72 1.21972e-05
14 *93:10 *110:14 0.000178453
15 *93:10 *207:32 0.000715623
16 *93:10 *247:88 1.24298e-05
17 *93:16 *207:38 0.000820202
18 *93:16 *252:56 0.000123703
19 *93:16 *254:45 0.000104089
20 *93:22 *119:56 0
21 *93:22 *249:33 7.95293e-05
22 *93:22 *249:48 0
23 *93:22 *252:54 0
24 *93:22 *255:71 2.93335e-05
25 *93:22 *255:83 0.000208733
26 *93:22 *265:10 3.7122e-06
27 *93:37 *98:30 0.000124902
28 *93:37 *167:22 0.000246845
29 *93:37 *207:38 4.21048e-05
30 *93:37 *235:82 0.000939861
31 *93:37 *267:38 0.000169999
32 *93:43 *98:30 5.43589e-05
33 *93:43 *122:16 7.85166e-05
34 *93:43 *148:10 0.000102576
35 *93:43 *155:61 4.30894e-05
36 *93:43 *171:36 0.000224244
37 *93:43 *191:122 5.00753e-05
38 *93:43 *202:8 0.000176178
39 *93:43 *258:24 1.05441e-05
40 *93:43 *270:44 5.62266e-05
41 *93:53 *1025:A2 5.14826e-05
42 *93:53 *117:49 5.55743e-06
43 *93:53 *119:75 4.44897e-05
44 *93:53 *209:45 9.7454e-05
45 *93:53 *248:23 0.000104778
46 *983:A *93:37 0.000489308
47 *1183:RESET_B *93:22 0
48 *31:14 *93:43 0.000515911
49 *31:26 *93:43 0.000100932
50 *49:61 *93:43 9.37284e-05
51 *49:76 *93:37 4.56838e-05
52 *49:76 *93:43 0.000252111
53 *58:6 *93:16 0.000481483
54 *71:43 *93:43 6.61922e-05
55 *75:8 *93:53 2.49186e-05
56 *77:43 *93:43 0.00075501
57 *77:55 *93:37 4.21281e-05
58 *83:188 *93:16 0.000735225
59 *83:188 *93:37 0.000435371
60 *88:54 *93:43 0.000211883
*RES
1 *954:X *93:10 48.9786 
2 *93:10 *93:12 15 
3 *93:12 *93:16 33.7257 
4 *93:16 *93:22 35.9629 
5 *93:22 *981:A1 23 
6 *93:12 *93:37 34.3679 
7 *93:37 *93:43 47.1279 
8 *93:43 *93:53 33.1486 
9 *93:53 *1025:A1 23 
10 *93:37 *959:A2 40.5271 
*END

*D_NET *94 0.0169071
*CONN
*I *956:A I *D sky130_fd_sc_hd__clkbuf_2
*I *955:X O *D sky130_fd_sc_hd__and2b_1
*CAP
1 *956:A 0
2 *955:X 0
3 *94:28 0.000235822
4 *94:18 0.0037094
5 *94:6 0.00581827
6 *94:4 0.00234469
7 *94:6 *180:65 6.97005e-05
8 *94:6 *187:30 0.000107237
9 *94:6 *249:14 0.000164335
10 *94:18 *154:30 0.000174387
11 *94:18 *169:16 0
12 *94:18 *230:26 0.000463176
13 *94:18 *243:20 1.08929e-05
14 *94:18 *249:14 0.000863906
15 *94:28 *95:12 0.000110562
16 *94:28 *115:40 1.18051e-05
17 *94:28 *120:12 2.0599e-05
18 *94:28 *265:10 0
19 *94:28 *265:16 2.61314e-05
20 *94:28 *265:53 2.33855e-05
21 *1183:RESET_B *94:28 9.85586e-06
22 *26:34 *94:18 0.000255509
23 *28:24 *94:18 0
24 *44:22 *94:18 4.49573e-06
25 *53:10 *94:6 0.000168694
26 *53:14 *94:6 0.00227497
27 *67:6 *94:6 1.76095e-05
28 *80:36 *94:18 2.16954e-05
*RES
1 *955:X *94:4 23 
2 *94:4 *94:6 37.3064 
3 *94:6 *94:18 48.821 
4 *94:18 *94:28 31.7635 
5 *94:28 *956:A 23 
*END

*D_NET *95 0.0406872
*CONN
*I *957:B I *D sky130_fd_sc_hd__nand2_1
*I *972:A2 I *D sky130_fd_sc_hd__o221a_1
*I *1097:A2 I *D sky130_fd_sc_hd__a221o_1
*I *970:B I *D sky130_fd_sc_hd__nor2_2
*I *956:X O *D sky130_fd_sc_hd__clkbuf_2
*CAP
1 *957:B 0
2 *972:A2 0.000292731
3 *1097:A2 0
4 *970:B 0
5 *956:X 0.00113816
6 *95:139 0.000855356
7 *95:103 0.000428636
8 *95:91 0.00245085
9 *95:73 0.00287673
10 *95:69 0.00267591
11 *95:53 0.00316246
12 *95:45 0.00155507
13 *95:30 0.000915535
14 *95:18 0.00348438
15 *95:12 0.00234492
16 *972:A2 *972:C1 0.000175375
17 *972:A2 *234:163 3.691e-05
18 *972:A2 *247:54 0.000586609
19 *972:A2 *252:84 0.000178517
20 *95:12 *98:42 0.000128808
21 *95:12 *120:12 0.000423714
22 *95:12 *161:32 8.13038e-05
23 *95:12 *163:34 0.000173873
24 *95:12 *203:22 4.51815e-05
25 *95:12 *204:28 0.000289113
26 *95:12 *204:44 2.82363e-05
27 *95:12 *210:14 3.83285e-05
28 *95:12 *233:41 5.38749e-05
29 *95:12 *265:10 9.33529e-06
30 *95:12 *265:53 2.83734e-05
31 *95:18 *175:37 1.38064e-05
32 *95:18 *185:20 0.00161451
33 *95:30 *131:44 0.000205149
34 *95:30 *134:31 2.05503e-05
35 *95:30 *152:18 0.000186268
36 *95:30 *169:16 3.87221e-06
37 *95:30 *243:20 0.00133043
38 *95:45 *155:32 0.000363992
39 *95:45 *185:20 4.51815e-05
40 *95:45 *243:20 0.000504596
41 *95:53 *115:14 6.12496e-06
42 *95:53 *243:20 0.00043694
43 *95:53 *247:18 2.05503e-05
44 *95:69 *117:49 0
45 *95:69 *141:34 0.000297447
46 *95:69 *178:18 0.00022462
47 *95:69 *179:32 0.000376035
48 *95:69 *209:63 0.000144356
49 *95:69 *227:71 0.000181192
50 *95:69 *236:69 0.000730733
51 *95:69 *259:71 1.58513e-05
52 *95:69 *269:18 0.000307165
53 *95:69 *269:26 0.000450384
54 *95:73 *191:177 0.000502835
55 *95:73 *234:163 0.00010696
56 *95:73 *237:63 0.00021677
57 *95:91 *972:C1 2.26406e-05
58 *95:91 *109:64 0.000174871
59 *95:91 *121:18 8.85541e-06
60 *95:91 *128:44 2.29707e-05
61 *95:91 *168:20 9.84513e-05
62 *95:91 *181:26 0.000296701
63 *95:91 *183:46 3.24388e-05
64 *95:91 *200:28 0
65 *95:91 *207:18 8.76626e-06
66 *95:91 *251:86 2.46922e-05
67 *95:103 *1097:A1 0.000166174
68 *95:103 *105:6 9.67842e-05
69 *95:103 *159:18 4.2351e-05
70 *95:103 *225:10 0.000143154
71 *95:103 *267:14 9.44092e-05
72 *95:139 *957:A 6.21523e-05
73 *95:139 *131:32 4.52356e-05
74 *95:139 *149:28 7.11824e-06
75 *95:139 *236:100 0.000205438
76 *95:139 *243:20 0.000444251
77 *966:A_N *95:103 9.58714e-05
78 *966:B *95:103 9.88574e-06
79 *966:C *95:103 5.3304e-05
80 *3:21 *95:12 0.000767293
81 *23:26 *95:12 4.51815e-05
82 *26:28 *95:139 0.000103442
83 *33:16 *95:45 0.00055772
84 *41:22 *95:73 0.00022034
85 *48:32 *95:30 0.000259178
86 *48:32 *95:45 0.000210497
87 *48:32 *95:53 0.000431951
88 *48:32 *95:139 0.000358682
89 *55:14 *95:139 4.54742e-05
90 *59:18 *95:139 9.92345e-05
91 *64:30 *95:69 0.000260996
92 *76:32 *95:91 0
93 *78:67 *95:69 3.87221e-06
94 *83:82 *95:69 0.000172889
95 *84:22 *95:103 9.5877e-05
96 *85:20 *95:18 0.00146446
97 *85:57 *95:91 0.000372252
98 *89:22 *95:91 0.000186137
99 *94:28 *95:12 0.000110562
*RES
1 *956:X *95:12 49.4253 
2 *95:12 *95:18 20.3717 
3 *95:18 *95:30 28.4196 
4 *95:30 *970:B 23 
5 *95:18 *95:45 38.326 
6 *95:45 *95:53 24.1928 
7 *95:53 *95:69 35.5193 
8 *95:69 *95:73 25.6264 
9 *95:73 *95:91 44.4475 
10 *95:91 *95:103 32.0729 
11 *95:103 *1097:A2 23 
12 *95:73 *972:A2 30.9543 
13 *95:53 *95:139 30.4683 
14 *95:139 *957:B 23 
*END

*D_NET *96 0.0202568
*CONN
*I *959:A3 I *D sky130_fd_sc_hd__a31o_2
*I *957:Y O *D sky130_fd_sc_hd__nand2_1
*CAP
1 *959:A3 0.000722284
2 *957:Y 0.000113623
3 *96:36 0.00209235
4 *96:28 0.00212954
5 *96:22 0.00125186
6 *96:14 0.00198139
7 *96:10 0.00160262
8 *959:A3 *1002:A0 9.41704e-05
9 *959:A3 *98:30 5.3304e-05
10 *959:A3 *98:72 4.5051e-05
11 *959:A3 *141:10 0.000144455
12 *959:A3 *201:110 0.000221997
13 *96:10 *234:18 7.68979e-05
14 *96:10 *236:100 7.68979e-05
15 *96:14 *115:14 0.000993634
16 *96:14 *126:20 8.88567e-05
17 *96:22 *151:23 0.000886622
18 *96:22 *205:24 0
19 *96:28 *116:96 4.21023e-05
20 *96:28 *209:10 0.000180232
21 *96:28 *255:12 0.000340054
22 *96:36 *948:A 1.13812e-05
23 *96:36 *110:14 0.000126022
24 *96:36 *123:22 0.000105806
25 *96:36 *123:42 9.23705e-06
26 *96:36 *172:16 0.000561573
27 *96:36 *174:108 0.000378943
28 *96:36 *175:12 2.33476e-05
29 *96:36 *196:41 2.05503e-05
30 *96:36 *198:54 0.000120384
31 *96:36 *233:12 2.66373e-05
32 *96:36 *255:63 0.000700543
33 *96:36 *270:10 0.000171889
34 *959:A2 *959:A3 0.000178517
35 *991:B1 *96:28 0.000133848
36 *1002:S *959:A3 0.000102389
37 *1144:S *959:A3 0.000123215
38 *1170:D *96:14 0.00021464
39 *26:28 *96:22 9.61939e-05
40 *36:6 *96:22 0.000843153
41 *37:6 *959:A3 2.25809e-05
42 *43:32 *96:36 0.000542904
43 *47:10 *96:36 0.000179113
44 *60:22 *96:10 5.3304e-05
45 *67:32 *959:A3 0.000304686
46 *71:43 *959:A3 0.000234918
47 *71:47 *959:A3 5.3304e-05
48 *81:100 *96:28 0.000355586
49 *81:100 *96:36 2.36242e-05
50 *82:100 *96:28 0
51 *82:100 *96:36 0.000106717
52 *87:10 *959:A3 0.00129384
*RES
1 *957:Y *96:10 39.8229 
2 *96:10 *96:14 35.155 
3 *96:14 *96:22 44.0443 
4 *96:22 *96:28 28.7439 
5 *96:28 *96:36 45.3154 
6 *96:36 *959:A3 43.7971 
*END

*D_NET *97 0.0193126
*CONN
*I *980:A I *D sky130_fd_sc_hd__or2_2
*I *1142:C I *D sky130_fd_sc_hd__and3_1
*I *959:B1 I *D sky130_fd_sc_hd__a31o_2
*I *958:Y O *D sky130_fd_sc_hd__nor2_1
*CAP
1 *980:A 0
2 *1142:C 0
3 *959:B1 0.000130333
4 *958:Y 0
5 *97:60 0.000717421
6 *97:45 0.000885531
7 *97:37 0.0029458
8 *97:22 0.00238263
9 *97:16 0.00211166
10 *97:10 0.0019686
11 *97:4 0.000766393
12 *959:B1 *103:43 0.000204378
13 *959:B1 *261:33 6.27542e-05
14 *97:10 *207:18 3.85883e-05
15 *97:16 *98:79 0.000132862
16 *97:16 *98:91 0.000437085
17 *97:16 *122:56 1.75427e-05
18 *97:16 *168:6 0.000726451
19 *97:16 *208:36 2.6365e-05
20 *97:16 *251:69 0.000108185
21 *97:16 *256:28 0.000260677
22 *97:16 *269:53 3.89965e-05
23 *97:22 *1097:C1 0.000222953
24 *97:22 *122:56 0.000475292
25 *97:22 *267:38 4.40294e-05
26 *97:37 *103:43 0.000194342
27 *97:37 *145:94 1.75427e-05
28 *97:37 *167:32 0.000120712
29 *97:37 *174:57 0.000199535
30 *97:37 *201:134 8.10876e-05
31 *97:37 *261:33 0.000166936
32 *97:37 *264:31 1.94859e-05
33 *97:45 *270:10 8.36198e-05
34 *97:60 *150:60 9.91548e-05
35 *97:60 *185:61 0
36 *97:60 *188:14 9.66668e-05
37 *97:60 *224:12 0.000243219
38 *958:A *97:60 1.46286e-05
39 *1180:D *97:45 0.000372454
40 *74:10 *97:37 0.00218668
41 *76:16 *97:16 3.41998e-06
42 *81:38 *97:45 0.000530022
43 *82:154 *97:60 2.93335e-05
44 *82:162 *97:10 8.4047e-05
45 *87:36 *97:16 8.78765e-06
46 *91:24 *97:16 0
47 *92:10 *959:B1 5.64492e-05
*RES
1 *958:Y *97:4 23 
2 *97:4 *97:10 31.2014 
3 *97:10 *97:16 41.0793 
4 *97:16 *97:22 35.3857 
5 *97:22 *959:B1 40.9621 
6 *97:22 *97:37 48.2671 
7 *97:37 *97:45 43.5989 
8 *97:45 *1142:C 23 
9 *97:4 *97:60 40.7507 
10 *97:60 *980:A 23 
*END

*D_NET *98 0.0223577
*CONN
*I *1042:A1 I *D sky130_fd_sc_hd__a31o_1
*I *982:A I *D sky130_fd_sc_hd__xnor2_2
*I *1058:A I *D sky130_fd_sc_hd__and4_1
*I *960:A I *D sky130_fd_sc_hd__buf_1
*I *1028:A1 I *D sky130_fd_sc_hd__a211o_1
*I *959:X O *D sky130_fd_sc_hd__a31o_2
*CAP
1 *1042:A1 0
2 *982:A 0
3 *1058:A 0
4 *960:A 0
5 *1028:A1 0
6 *959:X 0
7 *98:104 0.000380728
8 *98:91 0.000506162
9 *98:79 0.00111092
10 *98:72 0.000429583
11 *98:60 0.000643272
12 *98:42 0.00085118
13 *98:30 0.00311265
14 *98:4 0.00311029
15 *98:30 *110:41 0.000429341
16 *98:30 *122:16 0.000221195
17 *98:30 *122:29 8.18131e-05
18 *98:30 *128:44 8.98616e-05
19 *98:30 *167:22 4.86724e-05
20 *98:30 *200:28 0.0006617
21 *98:30 *226:30 0.00160643
22 *98:30 *254:45 3.92627e-05
23 *98:42 *162:38 0.000106368
24 *98:42 *167:12 9.38708e-05
25 *98:42 *204:28 0.00012361
26 *98:42 *208:106 0.000124931
27 *98:42 *270:10 9.10938e-05
28 *98:60 *1028:B1 2.11119e-05
29 *98:60 *1079:A1 0
30 *98:60 *106:111 5.78261e-05
31 *98:60 *115:40 0.000761725
32 *98:60 *120:26 6.56284e-05
33 *98:60 *120:39 5.58003e-05
34 *98:60 *155:143 3.65917e-05
35 *98:60 *162:38 3.7122e-06
36 *98:60 *175:20 0.000618843
37 *98:60 *208:106 0.000259161
38 *98:60 *212:14 9.30302e-05
39 *98:60 *259:50 7.18797e-05
40 *98:72 *1058:C 0.000157011
41 *98:79 *1058:B 5.3304e-05
42 *98:79 *1058:C 4.05745e-05
43 *98:79 *150:83 4.78497e-05
44 *98:79 *197:6 0.000270951
45 *98:79 *251:69 9.78729e-06
46 *98:91 *120:105 0.000476926
47 *98:91 *197:6 0.000128779
48 *98:91 *201:80 2.02872e-05
49 *98:91 *225:10 4.94766e-06
50 *98:91 *237:78 0.000447616
51 *98:91 *256:28 0.000179473
52 *98:91 *263:18 0.000142678
53 *98:104 *1095:A2 0
54 *98:104 *106:53 5.99449e-05
55 *98:104 *112:91 9.28078e-06
56 *98:104 *120:88 0.000100069
57 *98:104 *150:83 0.000107586
58 *98:104 *208:36 0.000128214
59 *98:104 *256:18 2.91772e-05
60 *959:A2 *98:72 1.21972e-05
61 *959:A3 *98:30 5.3304e-05
62 *959:A3 *98:72 4.5051e-05
63 *46:20 *98:30 0.0010058
64 *49:76 *98:30 2.46199e-05
65 *71:43 *98:30 1.75562e-05
66 *76:16 *98:30 2.32004e-05
67 *76:16 *98:72 0.000451143
68 *76:16 *98:79 8.11489e-05
69 *85:20 *98:30 0.000772052
70 *85:57 *98:30 0.000493519
71 *87:26 *98:30 0.000177423
72 *93:37 *98:30 0.000124902
73 *93:43 *98:30 5.43589e-05
74 *95:12 *98:42 0.000128808
75 *97:16 *98:79 0.000132862
76 *97:16 *98:91 0.000437085
*RES
1 *959:X *98:4 23 
2 *98:4 *98:30 45.4572 
3 *98:30 *98:42 34.2225 
4 *98:42 *98:60 46.1364 
5 *98:60 *1028:A1 23 
6 *98:42 *960:A 23 
7 *98:4 *98:72 5.38571 
8 *98:72 *1058:A 23 
9 *98:72 *98:79 5.86214 
10 *98:79 *98:91 43.4643 
11 *98:91 *982:A 23 
12 *98:79 *98:104 36.525 
13 *98:104 *1042:A1 23 
*END

*D_NET *99 0.0181583
*CONN
*I *961:A I *D sky130_fd_sc_hd__dlymetal6s2s_1
*I *1031:A I *D sky130_fd_sc_hd__or2_1
*I *1027:A I *D sky130_fd_sc_hd__and2_1
*I *960:X O *D sky130_fd_sc_hd__buf_1
*CAP
1 *961:A 0.000507989
2 *1031:A 0
3 *1027:A 0
4 *960:X 0.000931146
5 *99:47 0.000479425
6 *99:43 0.00161758
7 *99:26 0.00182437
8 *99:8 0.00245454
9 *99:6 0.000931146
10 *961:A *104:10 2.64616e-05
11 *961:A *210:53 0.0007418
12 *961:A *234:134 0.000788891
13 *99:6 *162:38 0.000483487
14 *99:6 *236:39 0.000594794
15 *99:26 *120:47 0.00092215
16 *99:26 *120:72 0.000159753
17 *99:26 *126:10 2.05503e-05
18 *99:26 *126:14 0.00144733
19 *99:26 *174:83 2.5172e-05
20 *99:26 *201:33 0.000133516
21 *99:26 *205:24 0
22 *99:26 *216:64 2.47945e-05
23 *99:26 *234:112 0.000160843
24 *99:26 *258:20 9.98916e-05
25 *99:26 *262:26 0.000273641
26 *99:43 *129:26 1.09826e-05
27 *99:43 *158:26 2.26497e-05
28 *99:43 *202:14 9.41704e-05
29 *99:43 *210:53 0.000414393
30 *99:43 *234:112 0.000759577
31 *99:43 *234:121 0.000199919
32 *99:43 *234:134 1.05441e-05
33 *99:43 *237:31 9.65021e-05
34 *99:43 *262:26 0.000477062
35 *99:47 *1049:A 8.76309e-05
36 *99:47 *161:24 0.00046391
37 *99:47 *161:68 0.000209137
38 *99:47 *170:8 5.3304e-05
39 *99:47 *256:18 0.000325372
40 *22:18 *99:47 8.16097e-05
41 *33:16 *99:26 0.000179288
42 *49:51 *99:26 2.29906e-05
*RES
1 *960:X *99:6 37.9143 
2 *99:6 *99:8 15 
3 *99:8 *99:26 37.0164 
4 *99:26 *1027:A 38 
5 *99:8 *99:43 45.1214 
6 *99:43 *99:47 27.0557 
7 *99:47 *1031:A 23 
8 *99:43 *961:A 49.6829 
*END

*D_NET *100 0.0304241
*CONN
*I *962:A I *D sky130_fd_sc_hd__buf_1
*I *1050:S I *D sky130_fd_sc_hd__mux2_1
*I *995:A I *D sky130_fd_sc_hd__buf_1
*I *961:X O *D sky130_fd_sc_hd__dlymetal6s2s_1
*CAP
1 *962:A 0
2 *1050:S 0
3 *995:A 0
4 *961:X 0.000137286
5 *100:77 0.00074546
6 *100:65 0.00074546
7 *100:63 0.0025174
8 *100:40 0.00144661
9 *100:32 0.00563244
10 *100:20 0.00275758
11 *100:8 0.00122644
12 *100:8 *104:10 0.000135256
13 *100:8 *106:57 5.3304e-05
14 *100:8 *170:43 5.42593e-05
15 *100:20 *106:53 0.000727183
16 *100:20 *110:41 0.000113633
17 *100:20 *113:55 0
18 *100:20 *129:26 0
19 *100:20 *251:34 4.53082e-05
20 *100:32 *116:78 0.00082539
21 *100:32 *129:26 0.000211843
22 *100:32 *154:18 0.00149174
23 *100:32 *158:26 5.96737e-06
24 *100:32 *178:38 8.73121e-05
25 *100:40 *104:16 0.000212169
26 *100:40 *115:28 0.000511038
27 *100:40 *130:56 2.35867e-05
28 *100:40 *171:52 0.00121712
29 *100:40 *174:134 0.000122999
30 *100:40 *230:26 7.06542e-05
31 *100:63 *1117:D_N 1.1267e-06
32 *100:63 *115:28 0.00064373
33 *100:63 *130:56 0.000106652
34 *100:63 *141:34 1.73824e-05
35 *100:63 *151:27 0.000254811
36 *100:63 *157:12 3.77971e-05
37 *100:63 *197:36 0.000138271
38 *100:63 *236:69 2.24267e-05
39 *100:63 *236:134 1.91691e-05
40 *100:63 *257:37 4.93791e-05
41 *100:77 *1050:A0 2.33679e-05
42 *100:77 *1050:A1 5.3304e-05
43 *100:77 *105:10 1.21715e-05
44 *100:77 *106:10 5.64492e-05
45 *100:77 *118:59 0.000233735
46 *100:77 *135:6 9.41704e-05
47 *100:77 *180:6 3.54759e-05
48 *100:77 *188:18 6.13529e-05
49 *100:77 *212:58 2.05503e-05
50 *100:77 *239:130 0.000137134
51 *100:77 *242:24 0.000400651
52 seg[2] *100:77 1.33995e-05
53 *21:18 *100:63 0.000190215
54 *34:26 *100:20 9.72298e-05
55 *40:22 *100:63 0.00154619
56 *43:12 *100:63 0.000270501
57 *43:26 *100:20 1.17256e-05
58 *43:26 *100:32 2.89817e-05
59 *43:32 *100:20 9.76622e-05
60 *46:20 *100:20 0
61 *48:12 *100:77 2.26406e-05
62 *54:12 *100:32 0.00014787
63 *57:36 *100:63 0.000717781
64 *57:50 *100:40 0.00122412
65 *57:50 *100:63 0.000502801
66 *57:68 *100:40 0.000739952
67 *64:66 *100:63 0.000138271
68 *67:32 *100:20 1.58785e-05
69 *78:30 *100:63 2.37336e-05
70 *81:72 *100:63 0.000104553
71 *81:88 *100:63 0.000109188
72 *82:30 *100:77 7.14493e-05
73 *82:54 *100:63 0.000213943
74 *84:130 *100:77 0.000311958
75 *89:44 *100:77 0.000138607
76 *90:24 *100:63 0.000148887
*RES
1 *961:X *100:8 41.0036 
2 *100:8 *100:20 47.7521 
3 *100:20 *100:32 31.3139 
4 *100:32 *100:40 30.187 
5 *100:40 *995:A 23 
6 *100:32 *100:63 36.2386 
7 *100:63 *100:65 15 
8 *100:65 *100:77 47.2136 
9 *100:77 *1050:S 23 
10 *100:65 *962:A 23 
*END

*D_NET *101 0.025298
*CONN
*I *974:A I *D sky130_fd_sc_hd__nor2_2
*I *1023:S I *D sky130_fd_sc_hd__mux2_1
*I *962:X O *D sky130_fd_sc_hd__buf_1
*CAP
1 *974:A 0
2 *1023:S 0
3 *962:X 0.000297768
4 *101:26 0.000897031
5 *101:20 0.00581363
6 *101:8 0.00521437
7 *101:8 *143:16 0.000562286
8 *101:8 *197:36 0.000578592
9 *101:20 *113:16 0.00025725
10 *101:20 *113:36 0.00209494
11 *101:20 *113:84 2.02345e-05
12 *101:20 *137:20 0.000914156
13 *101:20 *143:16 0.000166847
14 *101:20 *197:36 0.000170553
15 *101:20 *212:58 0
16 *101:20 *230:26 0.000259809
17 *101:20 *254:45 1.2632e-05
18 *101:20 *263:46 9.19646e-05
19 *101:20 *266:28 4.51815e-05
20 *101:20 *269:18 0.000210325
21 *101:26 *173:30 0.00107943
22 *101:26 *229:16 0.000175148
23 *101:26 *239:8 0.000281711
24 *101:26 *250:8 0.0011591
25 *101:26 *271:20 0.00013077
26 *1190:A *101:26 5.3304e-05
27 *32:36 *101:20 0.00176428
28 *44:22 *101:20 0.000216343
29 *64:66 *101:20 0.00224182
30 *64:88 *101:20 0.000315047
31 *70:32 *101:20 5.45304e-05
32 *70:32 *101:26 0.000218894
33 *80:36 *101:20 0
*RES
1 *962:X *101:8 46.2443 
2 *101:8 *101:20 31.9523 
3 *101:20 *101:26 41.7525 
4 *101:26 *1023:S 23 
5 *101:8 *974:A 38 
*END

*D_NET *102 0.00774785
*CONN
*I *964:A I *D sky130_fd_sc_hd__buf_1
*I *963:X O *D sky130_fd_sc_hd__and3b_1
*CAP
1 *964:A 0.000455925
2 *963:X 4.72972e-05
3 *102:16 0.00210945
4 *102:8 0.00170082
5 *964:A *985:C1 5.42932e-05
6 *964:A *123:42 0.00010091
7 *964:A *124:10 1.59094e-05
8 *964:A *258:10 0.0010222
9 *102:8 *104:14 1.94693e-05
10 *102:16 *106:95 0.000655003
11 *102:16 *115:40 6.023e-05
12 *102:16 *132:10 3.15657e-05
13 *102:16 *136:24 0.000218154
14 *102:16 *155:143 6.51429e-05
15 *102:16 *160:18 2.05503e-05
16 *102:16 *163:34 0.000114296
17 *102:16 *167:12 0
18 *102:16 *185:47 0
19 *102:16 *212:14 8.81675e-05
20 *102:16 *233:143 0
21 *102:16 *233:176 0
22 *102:16 *233:189 0
23 *102:16 *236:33 2.46922e-05
24 *102:16 *237:14 0.000153557
25 *102:16 *255:71 8.38427e-05
26 *69:14 *102:16 0.000300653
27 *81:100 *964:A 6.12304e-05
28 *82:100 *964:A 0.000310571
29 *83:188 *102:16 3.39272e-05
*RES
1 *963:X *102:8 38.6214 
2 *102:8 *102:16 45.8436 
3 *102:16 *964:A 35.0764 
*END

*D_NET *103 0.0105163
*CONN
*I *965:A I *D sky130_fd_sc_hd__clkbuf_2
*I *1053:A I *D sky130_fd_sc_hd__or2_1
*I *964:X O *D sky130_fd_sc_hd__buf_1
*CAP
1 *965:A 0.000140886
2 *1053:A 0
3 *964:X 0.000182297
4 *103:43 0.00145803
5 *103:32 0.00178734
6 *103:26 0.000884803
7 *103:10 0.000596899
8 *965:A *104:10 2.43944e-05
9 *965:A *167:32 0.000261206
10 *103:10 *121:87 4.24266e-05
11 *103:10 *258:10 5.79559e-05
12 *103:10 *270:18 7.99224e-05
13 *103:26 *987:A1 9.77405e-05
14 *103:26 *987:A2 2.32101e-05
15 *103:26 *164:16 0.000173881
16 *103:26 *174:108 7.14493e-05
17 *103:26 *252:40 0.000116332
18 *103:32 *164:16 0.000138607
19 *103:43 *119:46 0.000421587
20 *103:43 *120:72 2.26497e-05
21 *103:43 *123:16 3.30268e-05
22 *103:43 *126:56 1.8904e-05
23 *103:43 *145:73 0.000110706
24 *103:43 *145:75 0.000510743
25 *103:43 *145:94 0.000396502
26 *103:43 *148:8 1.10658e-05
27 *103:43 *161:10 0.000102363
28 *103:43 *171:14 0.00015573
29 *103:43 *171:20 8.35872e-05
30 *103:43 *174:67 1.62657e-05
31 *103:43 *192:10 0.000180161
32 *103:43 *251:61 0.000234705
33 *103:43 *261:14 2.12347e-06
34 *959:B1 *103:43 0.000204378
35 *3:21 *103:26 2.05503e-05
36 *32:36 *103:10 2.4917e-05
37 *32:36 *103:26 5.72853e-05
38 *32:52 *103:26 4.1771e-06
39 *49:61 *103:32 0.000139692
40 *49:61 *103:43 2.1819e-05
41 *64:30 *103:26 0.000167393
42 *77:87 *965:A 0.000346509
43 *90:42 *103:32 3.59414e-05
44 *90:42 *103:43 0.000434132
45 *90:60 *103:26 1.51463e-05
46 *90:60 *103:32 0.000323776
47 *92:10 *103:43 8.87486e-05
48 *97:37 *103:43 0.000194342
*RES
1 *964:X *103:10 40.8793 
2 *103:10 *103:26 38.5343 
3 *103:26 *103:32 23.7414 
4 *103:32 *1053:A 23 
5 *103:32 *103:43 42.5914 
6 *103:43 *965:A 41.9564 
*END

*D_NET *104 0.0175028
*CONN
*I *971:A I *D sky130_fd_sc_hd__nor2_2
*I *968:A I *D sky130_fd_sc_hd__or2_1
*I *970:A I *D sky130_fd_sc_hd__nor2_2
*I *965:X O *D sky130_fd_sc_hd__clkbuf_2
*CAP
1 *971:A 0
2 *968:A 0.000324366
3 *970:A 9.9006e-05
4 *965:X 0
5 *104:16 0.00240035
6 *104:14 0.00285105
7 *104:10 0.00265359
8 *104:4 0.00242825
9 *968:A *968:B 9.41704e-05
10 *968:A *122:39 0.000141355
11 *968:A *130:39 0
12 *968:A *199:8 4.88501e-05
13 *968:A *271:43 6.63159e-06
14 *970:A *152:18 0.00010904
15 *970:A *209:18 0.000262864
16 *104:10 *106:57 2.61408e-05
17 *104:10 *110:6 0.000209423
18 *104:10 *110:41 0.000376006
19 *104:10 *167:32 2.02872e-05
20 *104:10 *234:134 6.64565e-05
21 *104:10 *263:18 0.000179473
22 *104:14 *170:43 0.000364942
23 *104:16 *1023:A1 3.94619e-05
24 *104:16 *130:39 0
25 *104:16 *161:42 0.000154268
26 *104:16 *171:52 2.48288e-05
27 *104:16 *174:134 6.87591e-05
28 *104:16 *191:142 0.000135951
29 *104:16 *204:75 0.000294791
30 *104:16 *208:106 1.37349e-05
31 *104:16 *210:14 6.92184e-05
32 *104:16 *222:30 7.85449e-05
33 *104:16 *227:14 0.000448398
34 *104:16 *230:26 0.00016132
35 *104:16 *236:8 0.000359008
36 *104:16 *238:62 0.000199929
37 *104:16 *252:54 0
38 *961:A *104:10 2.64616e-05
39 *965:A *104:10 2.43944e-05
40 *1138:B *970:A 0.000138444
41 *21:34 *104:10 7.50756e-05
42 *24:30 *104:16 0.000498862
43 *29:10 *104:16 8.02685e-05
44 *37:22 *104:16 1.47387e-05
45 *52:8 *104:16 3.2629e-05
46 *57:68 *104:16 0.000766004
47 *64:88 *104:16 0.000310619
48 *77:72 *104:10 8.08272e-05
49 *77:72 *104:14 0.000145171
50 *77:87 *104:10 5.60133e-05
51 *82:185 *104:14 0.000175903
52 *100:8 *104:10 0.000135256
53 *100:40 *104:16 0.000212169
54 *102:8 *104:14 1.94693e-05
*RES
1 *965:X *104:4 23 
2 *104:4 *104:10 31.5064 
3 *104:10 *104:14 20.8621 
4 *104:14 *104:16 48.0364 
5 *104:16 *970:A 41.5007 
6 *104:14 *968:A 43.2614 
7 *104:10 *971:A 23 
*END

*D_NET *105 0.00994741
*CONN
*I *967:A I *D sky130_fd_sc_hd__buf_2
*I *966:X O *D sky130_fd_sc_hd__and3b_1
*CAP
1 *967:A 0.000216717
2 *966:X 0.00168433
3 *105:10 0.00134443
4 *105:6 0.00281204
5 *967:A *135:6 0.000139458
6 *967:A *189:14 2.64616e-05
7 *967:A *260:36 9.66585e-05
8 *105:6 *128:28 0.000329705
9 *105:10 *1105:C 0
10 *105:10 *106:10 1.66113e-05
11 *105:10 *128:20 0.000997815
12 *105:10 *131:14 2.08501e-05
13 *105:10 *150:58 0.000403443
14 *105:10 *188:18 0
15 *105:10 *195:12 0.000288088
16 *105:10 *224:12 0.00011215
17 *105:10 *260:18 0.000296947
18 *105:10 *260:36 3.32202e-05
19 *105:10 *260:63 0.000219678
20 seg[2] *105:10 4.76405e-05
21 *966:B *105:6 2.05038e-05
22 *17:8 *105:10 0.000548881
23 *48:12 *105:10 5.08422e-06
24 *76:32 *105:10 0.00017199
25 *82:162 *105:6 5.74317e-06
26 *95:103 *105:6 9.67842e-05
27 *100:77 *105:10 1.21715e-05
*RES
1 *966:X *105:6 43.6314 
2 *105:6 *105:10 48.2464 
3 *105:10 *967:A 41.9564 
*END

*D_NET *106 0.0460909
*CONN
*I *1042:B1 I *D sky130_fd_sc_hd__a31o_1
*I *971:B I *D sky130_fd_sc_hd__nor2_2
*I *987:A1 I *D sky130_fd_sc_hd__o21a_1
*I *1028:C1 I *D sky130_fd_sc_hd__a211o_1
*I *1094:B1 I *D sky130_fd_sc_hd__a21oi_1
*I *968:B I *D sky130_fd_sc_hd__or2_1
*I *988:A I *D sky130_fd_sc_hd__or3_2
*I *967:X O *D sky130_fd_sc_hd__buf_2
*CAP
1 *1042:B1 0
2 *971:B 0
3 *987:A1 0.000504161
4 *1028:C1 0
5 *1094:B1 0.00021534
6 *968:B 5.31015e-05
7 *988:A 0
8 *967:X 0.000290807
9 *106:111 0.000589665
10 *106:95 0.00188037
11 *106:80 0.00166258
12 *106:65 0.00103389
13 *106:57 0.000684797
14 *106:53 0.00206687
15 *106:37 0.00439467
16 *106:23 0.00347797
17 *106:10 0.000686779
18 *106:6 0.00176305
19 *968:B *271:43 2.81066e-05
20 *987:A1 *987:A2 0.000140931
21 *987:A1 *174:108 0.000670579
22 *987:A1 *230:55 0.000354038
23 *987:A1 *270:18 0.000779594
24 *1094:B1 *196:41 0.000966777
25 *1094:B1 *198:54 0.000966966
26 *106:6 *135:6 0.000349081
27 *106:10 *180:39 0.000529981
28 *106:10 *212:58 9.63274e-05
29 *106:10 *260:36 9.07011e-05
30 *106:10 *260:40 0.000466558
31 *106:23 *135:6 0.000367798
32 *106:23 *180:14 0.000223869
33 *106:23 *180:76 0.00165858
34 *106:23 *182:47 1.64319e-05
35 *106:23 *184:12 0.00178457
36 *106:37 *1095:A2 0
37 *106:37 *1100:A_N 0.000680362
38 *106:37 *108:49 0.000442455
39 *106:37 *112:91 4.85792e-05
40 *106:37 *119:30 0.000440335
41 *106:37 *181:26 4.8098e-05
42 *106:37 *186:14 2.30967e-05
43 *106:37 *196:41 2.77638e-05
44 *106:37 *221:12 0.000625704
45 *106:37 *245:14 0
46 *106:53 *1031:B 5.3304e-05
47 *106:53 *108:30 0.00123532
48 *106:53 *108:49 0.000408621
49 *106:53 *112:91 3.18198e-05
50 *106:53 *120:88 1.57659e-05
51 *106:53 *128:44 0
52 *106:53 *208:36 4.51797e-05
53 *106:53 *256:18 0.000141183
54 *106:57 *110:6 0.000394289
55 *106:57 *110:41 0.000735705
56 *106:57 *170:43 0.000213739
57 *106:65 *185:47 0
58 *106:65 *271:43 0.000374535
59 *106:80 *130:39 3.33983e-05
60 *106:80 *161:32 0.000281226
61 *106:80 *207:46 0.000834148
62 *106:80 *233:189 5.71767e-05
63 *106:80 *271:43 1.12796e-05
64 *106:95 *950:A 3.65789e-05
65 *106:95 *155:143 0.000291738
66 *106:95 *196:41 0.000350835
67 *106:95 *198:54 0.000339723
68 *106:95 *236:33 2.26406e-05
69 *106:95 *237:14 0.000143512
70 *106:95 *237:18 2.25368e-05
71 *106:95 *252:48 0.000204693
72 *106:111 *1028:B1 2.93547e-05
73 *106:111 *120:26 4.30894e-05
74 *106:111 *161:42 1.69502e-05
75 *106:111 *175:20 0.000401852
76 *106:111 *205:22 0.000295788
77 *106:111 *230:55 0.000257636
78 *106:111 *259:50 0.000117389
79 an[3] *106:37 5.57441e-05
80 seg[3] *106:10 2.47015e-05
81 *968:A *968:B 9.41704e-05
82 *26:10 *106:10 0.000393187
83 *37:10 *106:95 1.93422e-05
84 *39:24 *106:37 0.000370903
85 *39:24 *106:53 0.00165406
86 *53:20 *106:111 0.000178371
87 *58:12 *106:80 0.000288011
88 *58:22 *106:65 0.000192104
89 *76:32 *106:37 0.000123753
90 *77:72 *106:57 0.000866448
91 *81:38 *106:80 0.000902885
92 *82:185 *106:65 0
93 *82:205 *106:10 0.000166522
94 *85:57 *106:53 0.000151406
95 *88:12 *106:53 0.000128569
96 *88:27 *106:53 6.22951e-05
97 *89:10 *106:95 9.58709e-05
98 *98:60 *106:111 5.78261e-05
99 *98:104 *106:53 5.99449e-05
100 *100:8 *106:57 5.3304e-05
101 *100:20 *106:53 0.000727183
102 *100:77 *106:10 5.64492e-05
103 *102:16 *106:95 0.000655003
104 *103:26 *987:A1 9.77405e-05
105 *104:10 *106:57 2.61408e-05
106 *105:10 *106:10 1.66113e-05
*RES
1 *967:X *106:6 26.9564 
2 *106:6 *106:10 35.5693 
3 *106:10 *988:A 38 
4 *106:6 *106:23 43.6996 
5 *106:23 *106:37 38.9046 
6 *106:37 *106:53 48.5112 
7 *106:53 *106:57 28.9614 
8 *106:57 *106:65 37.0429 
9 *106:65 *968:B 24.0979 
10 *106:65 *106:80 48.2493 
11 *106:80 *1094:B1 33.6264 
12 *106:80 *106:95 48.1871 
13 *106:95 *106:111 43.2571 
14 *106:111 *1028:C1 23 
15 *106:95 *987:A1 37.1271 
16 *106:57 *971:B 23 
17 *106:37 *1042:B1 23 
*END

*D_NET *107 0.00642959
*CONN
*I *969:A I *D sky130_fd_sc_hd__clkbuf_2
*I *968:X O *D sky130_fd_sc_hd__or2_1
*CAP
1 *969:A 0
2 *968:X 0.00180941
3 *107:12 0.000288264
4 *107:6 0.00209767
5 *107:6 *201:100 0.00157885
6 *107:6 *271:43 0.000461816
7 *107:12 *122:29 3.24914e-05
8 *107:12 *146:24 4.27998e-05
9 *107:12 *211:10 0.000118287
*RES
1 *968:X *107:6 49.825 
2 *107:6 *107:12 34.3707 
3 *107:12 *969:A 23 
*END

*D_NET *108 0.0328011
*CONN
*I *1097:C1 I *D sky130_fd_sc_hd__a221o_1
*I *973:A2 I *D sky130_fd_sc_hd__a21o_1
*I *986:A2 I *D sky130_fd_sc_hd__a21o_1
*I *996:A I *D sky130_fd_sc_hd__buf_1
*I *1021:B1 I *D sky130_fd_sc_hd__a21oi_1
*I *969:X O *D sky130_fd_sc_hd__clkbuf_2
*CAP
1 *1097:C1 0.000164933
2 *973:A2 6.70868e-05
3 *986:A2 0
4 *996:A 8.50876e-05
5 *1021:B1 0
6 *969:X 9.6342e-05
7 *108:80 0.000259229
8 *108:65 0.00145607
9 *108:49 0.00318172
10 *108:30 0.00350444
11 *108:18 0.00588026
12 *108:10 0.00123669
13 *108:8 0.00079515
14 *973:A2 *973:B1 1.92253e-05
15 *973:A2 *116:39 5.79559e-05
16 *996:A *135:6 2.64616e-05
17 *1097:C1 *1097:B2 5.3304e-05
18 *1097:C1 *122:56 4.49877e-05
19 *108:10 *141:66 0.000315504
20 *108:18 *1058:B 0.000219325
21 *108:18 *120:88 0.000117689
22 *108:18 *141:66 3.84556e-05
23 *108:18 *170:31 8.87238e-05
24 *108:18 *251:61 0.000232654
25 *108:18 *261:14 1.92883e-05
26 *108:18 *261:33 2.82419e-06
27 *108:30 *109:40 7.51535e-06
28 *108:30 *109:50 0.000158641
29 *108:30 *173:30 9.76012e-05
30 *108:30 *222:30 0.00139403
31 *108:30 *238:12 0.00015466
32 *108:49 *1093:B1 5.29785e-05
33 *108:49 *221:12 2.26497e-05
34 *108:49 *222:30 0.000191737
35 *108:49 *256:34 0
36 *108:49 *263:32 0.000423481
37 *108:65 *111:10 0.000222273
38 *108:65 *135:6 6.70361e-05
39 *108:65 *193:8 2.26122e-05
40 *108:65 *207:18 0.00013581
41 *108:65 *212:58 4.60157e-05
42 *108:65 *223:18 2.15485e-05
43 *108:65 *223:34 0.000806331
44 *108:65 *234:173 5.10227e-05
45 *108:80 *124:67 5.11621e-05
46 *108:80 *125:20 0.000100061
47 *108:80 *176:16 3.57778e-05
48 *39:24 *108:30 0.00212154
49 *39:24 *108:49 0.00179473
50 *42:10 *108:30 0.000152214
51 *57:14 *108:49 0
52 *57:22 *108:65 0.000335523
53 *57:36 *108:65 0.000673972
54 *64:66 *108:80 0.00041157
55 *65:8 *108:8 0.000401569
56 *67:32 *108:30 0
57 *76:32 *108:49 9.1086e-05
58 *77:178 *996:A 6.70361e-05
59 *77:178 *108:65 6.39527e-05
60 *78:6 *996:A 8.48502e-06
61 *78:16 *996:A 1.59094e-05
62 *81:28 *108:30 0.000210779
63 *81:38 *108:30 0.000366619
64 *81:72 *108:49 4.81059e-05
65 *82:18 *108:65 3.65882e-05
66 *82:18 *108:80 0.000329542
67 *83:8 *108:10 1.64154e-05
68 *83:10 *108:10 0.000127594
69 *83:113 *108:49 4.36547e-05
70 *84:6 *108:8 0.000401569
71 *84:14 *108:10 3.18198e-05
72 *91:24 *108:10 0.000388814
73 *91:24 *108:18 0.000142733
74 *91:24 *108:49 0.000183524
75 *97:22 *1097:C1 0.000222953
76 *106:37 *108:49 0.000442455
77 *106:53 *108:30 0.00123532
78 *106:53 *108:49 0.000408621
*RES
1 *969:X *108:8 42.4329 
2 *108:8 *108:10 11.7657 
3 *108:10 *108:18 16.1304 
4 *108:18 *108:30 34.5645 
5 *108:30 *1021:B1 23 
6 *108:18 *108:49 19.5677 
7 *108:49 *108:65 39.4221 
8 *108:65 *996:A 24.5743 
9 *108:65 *108:80 36.8771 
10 *108:80 *986:A2 23 
11 *108:49 *973:A2 39.2429 
12 *108:10 *1097:C1 41.48 
*END

*D_NET *109 0.0361131
*CONN
*I *1021:A2 I *D sky130_fd_sc_hd__a21oi_1
*I *1097:B1 I *D sky130_fd_sc_hd__a221o_1
*I *972:B1 I *D sky130_fd_sc_hd__o221a_1
*I *970:Y O *D sky130_fd_sc_hd__nor2_2
*CAP
1 *1021:A2 0
2 *1097:B1 0
3 *972:B1 0
4 *970:Y 0.000345271
5 *109:100 0.000327257
6 *109:85 0.00102396
7 *109:64 0.00179313
8 *109:50 0.00914496
9 *109:40 0.00702019
10 *109:30 0.00104375
11 *109:22 0.00109089
12 *109:10 0.000757473
13 *109:10 *152:18 6.99175e-05
14 *109:10 *152:22 9.77922e-06
15 *109:10 *153:26 0.000440577
16 *109:10 *204:60 0.000220736
17 *109:10 *205:61 5.56356e-05
18 *109:10 *209:18 0.000226241
19 *109:10 *211:34 9.59224e-05
20 *109:10 *230:26 2.23467e-05
21 *109:10 *250:29 9.0029e-05
22 *109:22 *1124:A1 4.96832e-05
23 *109:22 *139:8 0.000136738
24 *109:22 *139:18 0.000111544
25 *109:22 *153:26 0.000557109
26 *109:22 *233:51 0.000168524
27 *109:22 *239:22 0.000403608
28 *109:30 *153:20 0.0011921
29 *109:30 *153:26 8.9985e-05
30 *109:30 *239:159 1.31099e-05
31 *109:30 *254:45 0.000120999
32 *109:30 *266:28 0.000408862
33 *109:40 *173:30 4.82958e-05
34 *109:40 *254:45 0.000364702
35 *109:50 *222:30 0.000101581
36 *109:64 *193:8 7.22049e-05
37 *109:64 *204:12 0.000567994
38 *109:64 *230:77 0.00016684
39 *109:64 *234:163 5.3304e-05
40 *109:64 *239:109 7.22049e-05
41 *109:64 *242:24 0.000188335
42 *109:64 *252:84 5.56279e-05
43 *109:64 *263:32 0.000735971
44 *109:85 *1097:A1 5.51815e-05
45 *109:85 *1097:B2 5.17777e-06
46 *109:85 *168:20 0.000302149
47 *109:85 *200:28 0
48 *109:85 *208:36 5.14746e-06
49 *109:85 *254:20 1.38465e-05
50 *109:100 *1021:A1 8.11489e-05
51 *109:100 *160:6 0.000294953
52 *109:100 *239:159 2.05503e-05
53 *1184:RESET_B *109:100 0.000477613
54 *28:16 *109:10 0.000114237
55 *65:18 *109:64 5.97282e-05
56 *67:32 *109:50 0.000282583
57 *72:14 *109:30 0.000405139
58 *78:84 *109:64 3.60156e-05
59 *78:84 *109:85 4.24018e-05
60 *80:36 *109:50 0.00298942
61 *80:36 *109:85 2.86444e-05
62 *81:38 *109:50 0.000124741
63 *81:72 *109:64 0.000724099
64 *85:57 *109:85 4.83836e-05
65 *89:22 *109:64 0.00020347
66 *95:91 *109:64 0.000174871
67 *108:30 *109:40 7.51535e-06
68 *108:30 *109:50 0.000158641
*RES
1 *970:Y *109:10 48.5643 
2 *109:10 *109:22 42.3457 
3 *109:22 *109:30 48.4254 
4 *109:30 *109:40 25.0435 
5 *109:40 *109:50 12.2563 
6 *109:50 *109:64 37.4049 
7 *109:64 *972:B1 23 
8 *109:50 *109:85 34.9538 
9 *109:85 *1097:B1 23 
10 *109:40 *109:100 31.0889 
11 *109:100 *1021:A2 23 
*END

*D_NET *110 0.0295817
*CONN
*I *972:C1 I *D sky130_fd_sc_hd__o221a_1
*I *1096:A I *D sky130_fd_sc_hd__buf_1
*I *1041:S I *D sky130_fd_sc_hd__mux2_1
*I *1022:A2_N I *D sky130_fd_sc_hd__a2bb2o_2
*I *985:C1 I *D sky130_fd_sc_hd__o221a_1
*I *971:Y O *D sky130_fd_sc_hd__nor2_2
*CAP
1 *972:C1 0.000255646
2 *1096:A 0
3 *1041:S 0.000369394
4 *1022:A2_N 3.88674e-05
5 *985:C1 3.67731e-05
6 *971:Y 0.000131009
7 *110:105 0.000757236
8 *110:78 0.00160917
9 *110:70 0.00139932
10 *110:68 0.00206244
11 *110:53 0.00174913
12 *110:41 0.00128812
13 *110:14 0.00157627
14 *110:6 0.00264966
15 *972:C1 *234:163 0.000385463
16 *972:C1 *251:86 1.13859e-05
17 *972:C1 *252:84 5.3304e-05
18 *985:C1 *123:42 7.5682e-05
19 *1022:A2_N *170:31 1.00493e-05
20 *1041:S *1041:A1 0.000100477
21 *1041:S *112:41 0
22 *1041:S *127:37 1.28753e-05
23 *1041:S *142:8 0.000293172
24 *1041:S *194:10 0.000155087
25 *1041:S *267:14 8.68016e-05
26 *110:14 *948:A 2.52376e-05
27 *110:14 *1071:B_N 0.000394896
28 *110:14 *123:22 0.000214329
29 *110:14 *201:100 3.7473e-07
30 *110:14 *202:27 0.00102059
31 *110:14 *207:32 8.30566e-06
32 *110:14 *208:81 0.000643199
33 *110:14 *233:169 4.59974e-05
34 *110:14 *247:88 6.84905e-05
35 *110:14 *254:10 0.00019377
36 *110:14 *254:45 0.000149721
37 *110:41 *128:44 0.00012361
38 *110:41 *154:18 0.000387058
39 *110:41 *247:71 7.20037e-05
40 *110:53 *1022:A1_N 3.28708e-05
41 *110:53 *132:10 0.000593365
42 *110:53 *160:18 0.000143616
43 *110:53 *170:31 0.000499247
44 *110:53 *210:53 1.81615e-05
45 *110:68 *120:76 6.08617e-05
46 *110:68 *132:10 0.00022391
47 *110:68 *159:18 0.00119499
48 *110:68 *170:31 9.78729e-06
49 *110:68 *223:10 9.32735e-05
50 *110:70 *116:23 0.000139539
51 *110:70 *174:23 0.000521552
52 *110:70 *181:10 2.05503e-05
53 *110:70 *251:86 0.000274412
54 *110:78 *142:8 3.39192e-05
55 *110:78 *194:10 0.000485827
56 *110:78 *200:28 1.66725e-05
57 *110:78 *204:12 2.05503e-05
58 *110:78 *234:163 0.000185371
59 *110:78 *251:86 9.86797e-05
60 *110:105 *142:14 0.00127771
61 *110:105 *143:8 0.000637237
62 *110:105 *224:8 0.000108315
63 *110:105 *238:70 4.44552e-05
64 *110:105 *247:44 1.21972e-05
65 *944:A *110:14 0.000115237
66 *964:A *985:C1 5.42932e-05
67 *972:A2 *972:C1 0.000175375
68 *1146:S *972:C1 2.2324e-05
69 *1146:S *110:70 3.2402e-05
70 *46:20 *110:41 0
71 *47:10 *110:14 2.66291e-05
72 *65:18 *110:70 0.000295792
73 *77:49 *110:53 4.30894e-05
74 *81:28 *110:53 0.000134969
75 *82:30 *1041:S 5.45541e-05
76 *83:20 *110:41 5.51822e-06
77 *85:30 *110:14 7.38638e-05
78 *85:57 *110:41 0.000157276
79 *87:26 *110:41 8.39961e-05
80 *89:88 *110:105 0.000175903
81 *90:34 *110:105 0.000342939
82 *93:10 *110:14 0.000178453
83 *95:91 *972:C1 2.26406e-05
84 *96:36 *110:14 0.000126022
85 *98:30 *110:41 0.000429341
86 *100:20 *110:41 0.000113633
87 *104:10 *110:6 0.000209423
88 *104:10 *110:41 0.000376006
89 *106:57 *110:6 0.000394289
90 *106:57 *110:41 0.000735705
*RES
1 *971:Y *110:6 27.4329 
2 *110:6 *110:14 47.7286 
3 *110:14 *985:C1 39.2843 
4 *110:6 *110:41 42.9171 
5 *110:41 *110:53 38.7589 
6 *110:53 *1022:A2_N 23.8493 
7 *110:53 *110:68 35.7971 
8 *110:68 *110:70 14.2307 
9 *110:70 *110:78 39.2386 
10 *110:78 *1041:S 45.1464 
11 *110:78 *110:105 34.43 
12 *110:105 *1096:A 23 
13 *110:70 *972:C1 43.9036 
*END

*D_NET *111 0.00191573
*CONN
*I *973:B1 I *D sky130_fd_sc_hd__a21o_1
*I *972:X O *D sky130_fd_sc_hd__o221a_1
*CAP
1 *973:B1 0.000349026
2 *972:X 0.000244122
3 *111:10 0.000593147
4 *973:B1 *1191:A 3.8178e-05
5 *973:B1 *116:39 6.1837e-05
6 *973:B1 *234:173 0
7 *111:10 *1165:CLK 5.3304e-05
8 *111:10 *234:163 5.56279e-05
9 *111:10 *234:173 0.000278994
10 *973:A2 *973:B1 1.92253e-05
11 *108:65 *111:10 0.000222273
*RES
1 *972:X *111:10 43.1164 
2 *111:10 *973:B1 42.6814 
*END

*D_NET *112 0.0220429
*CONN
*I *1031:B I *D sky130_fd_sc_hd__or2_1
*I *974:B I *D sky130_fd_sc_hd__nor2_2
*I *1024:B I *D sky130_fd_sc_hd__nand2_1
*I *1062:A1 I *D sky130_fd_sc_hd__a31o_2
*I *973:X O *D sky130_fd_sc_hd__a21o_1
*CAP
1 *1031:B 0.000122692
2 *974:B 0.000139108
3 *1024:B 0
4 *1062:A1 0
5 *973:X 7.73857e-05
6 *112:91 0.00110536
7 *112:57 0.00071104
8 *112:47 0.00131742
9 *112:41 0.00135635
10 *112:30 0.00117111
11 *112:18 0.00267345
12 *112:8 0.00120793
13 *974:B *124:67 0.000196728
14 *974:B *125:20 5.07948e-05
15 *1031:B *1049:A 6.61191e-05
16 *1031:B *120:88 0.00030232
17 *1031:B *188:10 0.000100061
18 *1031:B *256:18 4.81197e-05
19 *112:8 *240:10 0.000196165
20 *112:8 *260:63 5.31236e-05
21 *112:18 *1069:A 0.00025532
22 *112:18 *155:126 9.89901e-05
23 *112:18 *223:18 2.02872e-05
24 *112:18 *268:41 0.000766377
25 *112:30 *1056:C1 2.93335e-05
26 *112:30 *1062:A3 0.000169575
27 *112:30 *196:22 0.000853164
28 *112:30 *201:6 9.58714e-05
29 *112:41 *1056:C1 5.62243e-05
30 *112:41 *118:41 0.000546832
31 *112:41 *127:37 0.000597167
32 *112:41 *142:8 1.61989e-05
33 *112:41 *265:53 7.89883e-05
34 *112:47 *118:41 0.000198
35 *112:47 *127:37 0.000200099
36 *112:47 *223:42 0.000723506
37 *112:47 *223:50 4.65192e-05
38 *112:47 *231:12 0.000223906
39 *112:57 *134:37 1.75562e-05
40 *112:57 *141:34 0.000388209
41 *112:57 *183:30 0.000177879
42 *112:57 *190:30 9.28078e-06
43 *112:57 *198:16 1.68367e-05
44 *112:57 *236:69 7.0261e-05
45 *112:57 *259:14 6.29614e-05
46 *112:91 *1078:A3 2.01658e-06
47 *112:91 *1100:A_N 7.87147e-05
48 *112:91 *119:30 2.85501e-06
49 *112:91 *127:53 1.42439e-05
50 *112:91 *155:94 9.23705e-06
51 *112:91 *178:67 2.32787e-05
52 *112:91 *178:71 0.000201989
53 *112:91 *196:16 6.0808e-05
54 *112:91 *196:22 0.000428517
55 *112:91 *201:72 1.45144e-05
56 *112:91 *208:36 9.57661e-05
57 *979:A *112:57 8.16149e-05
58 *1041:S *112:41 0
59 *1143:A *974:B 5.16555e-05
60 *31:10 *112:57 0.000194814
61 *49:110 *112:57 1.84831e-05
62 *51:14 *112:47 0.00032056
63 *56:14 *112:30 0.000742637
64 *56:14 *112:91 0.000371332
65 *57:22 *112:18 0.000350075
66 *71:12 *974:B 5.56356e-05
67 *71:12 *112:41 4.29341e-05
68 *77:145 *112:57 0.000555548
69 *83:48 *112:47 0.00145295
70 *84:32 *112:91 0.00010529
71 *84:128 *112:30 9.78729e-06
72 *98:104 *112:91 9.28078e-06
73 *106:37 *112:91 4.85792e-05
74 *106:53 *1031:B 5.3304e-05
75 *106:53 *112:91 3.18198e-05
*RES
1 *973:X *112:8 40.61 
2 *112:8 *112:18 47.4621 
3 *112:18 *112:30 29.8521 
4 *112:30 *1062:A1 23 
5 *112:30 *112:41 27.4079 
6 *112:41 *112:47 35.2586 
7 *112:47 *112:57 46.2193 
8 *112:57 *1024:B 23 
9 *112:41 *974:B 42.3086 
10 *112:18 *112:91 47.0893 
11 *112:91 *1031:B 42.1221 
*END

*D_NET *113 0.0311822
*CONN
*I *992:A1 I *D sky130_fd_sc_hd__a21oi_2
*I *990:A I *D sky130_fd_sc_hd__or2_1
*I *1000:B1 I *D sky130_fd_sc_hd__a21oi_1
*I *974:Y O *D sky130_fd_sc_hd__nor2_2
*CAP
1 *992:A1 0
2 *990:A 0
3 *1000:B1 0
4 *974:Y 1.7376e-05
5 *113:84 0.00194581
6 *113:55 0.00185358
7 *113:36 0.00222418
8 *113:16 0.00600226
9 *113:10 0.00388768
10 *113:10 *118:41 3.87221e-06
11 *113:16 *130:56 0.00160072
12 *113:16 *212:58 6.22155e-06
13 *113:16 *263:46 0.000195808
14 *113:36 *134:10 9.28078e-06
15 *113:36 *134:31 0.000164652
16 *113:36 *154:18 3.28835e-05
17 *113:36 *169:16 1.00446e-05
18 *113:36 *173:14 9.20974e-06
19 *113:36 *217:30 6.45389e-05
20 *113:36 *250:52 0.000300326
21 *113:55 *128:44 2.75733e-06
22 *113:55 *129:26 6.56284e-05
23 *113:55 *154:18 0.00201425
24 *113:55 *173:30 0.00025538
25 *113:55 *216:64 0.000790271
26 *113:84 *118:63 1.03836e-05
27 *113:84 *128:20 8.28647e-05
28 *113:84 *130:76 1.87002e-05
29 *113:84 *130:84 9.60333e-05
30 *113:84 *131:14 5.80541e-05
31 *113:84 *144:18 0.000120161
32 *113:84 *181:26 6.18788e-06
33 *113:84 *183:46 0.000150058
34 *113:84 *212:58 1.24219e-05
35 *113:84 *239:93 0.000258668
36 *113:84 *239:130 0.000404506
37 *113:84 *260:26 0.000118023
38 *20:16 *113:36 1.0092e-05
39 *32:36 *113:16 0.00134698
40 *32:36 *113:36 0.000373207
41 *34:26 *113:55 0.000803418
42 *37:22 *113:36 5.18161e-05
43 *43:26 *113:55 0.00035609
44 *44:22 *113:36 0.000296155
45 *48:12 *113:84 0.00103545
46 *48:32 *113:84 0.000556862
47 *64:88 *113:16 0.00059187
48 *64:88 *113:36 0.00036149
49 *70:32 *113:16 2.98064e-05
50 *73:16 *113:10 2.26497e-05
51 *85:20 *113:36 0.000181081
52 *100:20 *113:55 0
53 *101:20 *113:16 0.00025725
54 *101:20 *113:36 0.00209494
55 *101:20 *113:84 2.02345e-05
*RES
1 *974:Y *113:10 46.3211 
2 *113:10 *113:16 5.6616 
3 *113:16 *113:36 48.4292 
4 *113:36 *1000:B1 23 
5 *113:16 *113:55 47.1242 
6 *113:55 *990:A 23 
7 *113:10 *113:84 49.876 
8 *113:84 *992:A1 23 
*END

*D_NET *114 0.00457866
*CONN
*I *976:C1 I *D sky130_fd_sc_hd__a211o_2
*I *975:X O *D sky130_fd_sc_hd__and4b_1
*CAP
1 *976:C1 0
2 *975:X 0.000359434
3 *114:16 0.000344919
4 *114:10 0.000704353
5 *114:10 *248:41 0.000105559
6 *114:10 *268:30 9.87372e-05
7 *114:16 *976:A1 0.000209138
8 *114:16 *1006:A1 0.000448754
9 *114:16 *1006:A3 0.000449822
10 *114:16 *118:41 0.000113496
11 *114:16 *244:16 0.0014012
12 *56:14 *114:10 0.000106977
13 *77:131 *114:10 0.00023627
*RES
1 *975:X *114:10 43.51 
2 *114:10 *114:16 30.8879 
3 *114:16 *976:C1 23 
*END

*D_NET *115 0.0244382
*CONN
*I *1025:A2 I *D sky130_fd_sc_hd__a31o_1
*I *981:A2 I *D sky130_fd_sc_hd__a31oi_4
*I *976:X O *D sky130_fd_sc_hd__a211o_2
*CAP
1 *1025:A2 0.000325668
2 *981:A2 9.0895e-05
3 *976:X 0.00175012
4 *115:40 0.00161926
5 *115:28 0.00317924
6 *115:14 0.00295851
7 *115:8 0.00273208
8 *1025:A2 *117:49 1.25603e-05
9 *1025:A2 *121:73 0.000139182
10 *1025:A2 *209:45 1.19102e-05
11 *1025:A2 *248:23 3.12608e-05
12 *1025:A2 *255:36 0.000187918
13 *115:8 *976:A1 0.000450434
14 *115:8 *1006:A1 0.000197507
15 *115:8 *118:41 0.000109991
16 *115:8 *131:32 4.34559e-05
17 *115:8 *144:26 0.000312715
18 *115:8 *145:8 2.95526e-05
19 *115:14 *1006:A1 0.000151036
20 *115:14 *124:36 9.9437e-05
21 *115:14 *126:20 0.000143107
22 *115:14 *131:32 0.000314434
23 *115:14 *247:18 0
24 *115:14 *248:23 1.45705e-05
25 *115:14 *248:31 9.78209e-06
26 *115:14 *255:36 2.83315e-05
27 *115:28 *130:56 8.08217e-05
28 *115:28 *169:35 6.86529e-05
29 *115:28 *255:28 3.24898e-05
30 *115:28 *259:34 0.00111188
31 *115:40 *119:56 0.000800731
32 *115:40 *120:12 0.000129916
33 *115:40 *120:26 8.30566e-06
34 *115:40 *136:24 0.000421196
35 *115:40 *137:8 2.87325e-05
36 *115:40 *163:34 0.000102538
37 *115:40 *175:20 6.579e-05
38 *115:40 *179:32 4.34864e-05
39 *115:40 *204:28 0.000456131
40 *115:40 *204:44 0.000261467
41 *115:40 *212:14 9.07036e-05
42 *115:40 *249:33 5.09072e-05
43 *115:40 *265:16 1.74575e-06
44 *1134:B *115:14 5.79413e-06
45 *31:14 *1025:A2 5.50577e-05
46 *31:14 *115:14 0.000741113
47 *32:36 *115:28 0
48 *40:22 *115:28 0.00104416
49 *49:18 *115:40 0.000102363
50 *53:20 *115:40 0
51 *57:50 *115:28 0.000355066
52 *57:68 *115:28 0.000162448
53 *64:68 *115:14 3.74378e-05
54 *69:14 *115:40 2.11157e-05
55 *75:8 *1025:A2 0.000175444
56 *93:53 *1025:A2 5.14826e-05
57 *94:28 *115:40 1.18051e-05
58 *95:53 *115:14 6.12496e-06
59 *96:14 *115:14 0.000993634
60 *98:60 *115:40 0.000761725
61 *100:40 *115:28 0.000511038
62 *100:63 *115:28 0.00064373
63 *102:16 *115:40 6.023e-05
*RES
1 *976:X *115:8 46.9871 
2 *115:8 *115:14 37.4646 
3 *115:14 *115:28 39.5392 
4 *115:28 *115:40 49.0685 
5 *115:40 *981:A2 24.0979 
6 *115:14 *1025:A2 45.4261 
*END

*D_NET *116 0.0385301
*CONN
*I *984:B I *D sky130_fd_sc_hd__nand2_2
*I *985:A2 I *D sky130_fd_sc_hd__o221a_1
*I *978:B I *D sky130_fd_sc_hd__or2_2
*I *1005:C I *D sky130_fd_sc_hd__or3_2
*I *1055:A3 I *D sky130_fd_sc_hd__o31a_1
*I *977:Y O *D sky130_fd_sc_hd__nand2b_2
*CAP
1 *984:B 0
2 *985:A2 0
3 *978:B 0.000244304
4 *1005:C 0
5 *1055:A3 0.00036144
6 *977:Y 0.000208068
7 *116:128 0.000196003
8 *116:102 0.000846806
9 *116:96 0.00263878
10 *116:90 0.00227452
11 *116:82 0.000309172
12 *116:78 0.00171859
13 *116:60 0.00288524
14 *116:52 0.00209756
15 *116:39 0.000756538
16 *116:23 0.00290155
17 *116:8 0.00165853
18 *978:B *978:A 0.00069454
19 *978:B *175:37 0.000101071
20 *978:B *215:14 0.00131795
21 *1055:A3 *1055:A2 5.67058e-05
22 *1055:A3 *1089:A1 0
23 *1055:A3 *194:8 0.000100477
24 *1055:A3 *221:33 0
25 *116:8 *174:41 0.000346663
26 *116:8 *271:74 0.000658483
27 *116:23 *121:10 0.000143182
28 *116:23 *128:28 4.45778e-05
29 *116:23 *168:20 1.48425e-05
30 *116:23 *174:23 0.000266799
31 *116:23 *174:29 0
32 *116:39 *174:23 0.000108994
33 *116:39 *234:173 9.95589e-06
34 *116:39 *251:6 5.8118e-05
35 *116:39 *262:45 0.000556492
36 *116:52 *1078:B1 2.02872e-05
37 *116:52 *178:67 2.05503e-05
38 *116:52 *227:71 2.26406e-05
39 *116:52 *257:14 0.000400563
40 *116:52 *257:37 9.41704e-05
41 *116:52 *262:45 0.00019064
42 *116:60 *158:26 0.000585453
43 *116:60 *168:32 8.78604e-05
44 *116:60 *198:44 0.000889461
45 *116:60 *245:14 0.000151959
46 *116:78 *1033:A 2.41841e-05
47 *116:78 *121:87 6.86529e-05
48 *116:78 *154:18 4.13662e-05
49 *116:78 *158:26 0.000440921
50 *116:78 *178:38 5.03284e-06
51 *116:78 *179:32 0.000551569
52 *116:78 *198:44 0.000239668
53 *116:78 *238:62 0.00018736
54 *116:78 *258:10 0.000226238
55 *116:82 *1033:A 1.34415e-05
56 *116:82 *1033:B 2.94893e-05
57 *116:82 *253:29 4.77164e-06
58 *116:90 *1033:A 1.55512e-05
59 *116:90 *1033:B 9.99433e-06
60 *116:90 *169:35 1.74874e-06
61 *116:90 *233:12 0.000222668
62 *116:90 *248:12 0.000188864
63 *116:90 *253:29 3.3042e-05
64 *116:96 *1046:A 0.000125499
65 *116:96 *1071:B_N 0.000254897
66 *116:96 *124:18 0.000268774
67 *116:96 *130:56 0.000260369
68 *116:96 *157:28 9.90107e-06
69 *116:96 *183:10 0
70 *116:96 *183:22 0.000211893
71 *116:96 *185:8 0.000341111
72 *116:96 *187:30 0
73 *116:96 *202:27 0.000187863
74 *116:96 *220:30 0
75 *116:96 *253:14 0.000133845
76 *116:96 *255:12 0
77 *116:102 *978:A 0.00097339
78 *116:102 *175:37 0.000447218
79 *116:102 *180:57 0.00202184
80 *116:102 *215:14 1.71761e-05
81 *116:128 *1078:A1 0.000357577
82 *116:128 *1078:A2 9.68031e-05
83 *116:128 *122:16 5.3304e-05
84 *116:128 *202:14 9.89901e-05
85 *116:128 *230:96 4.15283e-06
86 *116:128 *261:24 1.05441e-05
87 *973:A2 *116:39 5.79559e-05
88 *973:B1 *116:39 6.1837e-05
89 *991:B1 *116:96 0.000322282
90 *1005:A *116:39 5.40337e-05
91 *1055:A1 *1055:A3 1.40958e-05
92 *1176:D *116:39 1.78697e-05
93 *30:8 *1055:A3 8.78864e-05
94 *49:39 *116:96 0.000121197
95 *49:76 *116:128 2.05503e-05
96 *50:10 *116:23 0.000592136
97 *50:10 *116:39 4.4904e-05
98 *63:28 *116:78 0.000370902
99 *65:18 *1055:A3 2.12347e-06
100 *65:18 *116:23 0
101 *78:36 *978:B 0.000495163
102 *79:16 *116:96 0.000594337
103 *81:100 *116:96 0.000109264
104 *82:177 *1055:A3 0.000105599
105 *82:177 *116:23 8.68113e-05
106 *85:57 *116:23 0.000144869
107 *96:28 *116:96 4.21023e-05
108 *100:32 *116:78 0.00082539
109 *110:70 *116:23 0.000139539
*RES
1 *977:Y *116:8 45.2914 
2 *116:8 *1055:A3 45.1464 
3 *116:8 *116:23 21.6257 
4 *116:23 *116:39 30.2664 
5 *116:39 *1005:C 23 
6 *116:23 *116:52 43.3296 
7 *116:52 *116:60 10.6133 
8 *116:60 *116:78 46.8085 
9 *116:78 *116:82 16.2014 
10 *116:82 *116:90 34.785 
11 *116:90 *116:96 35.9393 
12 *116:96 *116:102 38.0343 
13 *116:102 *978:B 37.935 
14 *116:82 *985:A2 38 
15 *116:60 *116:128 27.7746 
16 *116:128 *984:B 23 
*END

*D_NET *117 0.0295305
*CONN
*I *1025:A3 I *D sky130_fd_sc_hd__a31o_1
*I *981:A3 I *D sky130_fd_sc_hd__a31oi_4
*I *978:X O *D sky130_fd_sc_hd__or2_2
*CAP
1 *1025:A3 0
2 *981:A3 0
3 *978:X 0.000131344
4 *117:49 0.00295075
5 *117:26 0.00378656
6 *117:12 0.00698719
7 *117:10 0.000381221
8 *117:10 *216:14 0
9 *117:12 *175:37 1.38508e-05
10 *117:12 *203:22 0.00220077
11 *117:26 *139:18 0.000334557
12 *117:26 *139:35 3.70187e-05
13 *117:26 *140:10 0.000281198
14 *117:26 *187:30 0
15 *117:26 *190:30 0.000322628
16 *117:26 *203:22 0.0026664
17 *117:26 *216:20 0.000931309
18 *117:26 *219:20 0
19 *117:26 *219:26 2.24048e-05
20 *117:26 *221:43 0.00210175
21 *117:26 *265:22 0.00021701
22 *117:26 *266:28 0.000617242
23 *117:49 *121:73 1.09903e-05
24 *117:49 *216:64 0.000150598
25 *117:49 *258:24 4.76405e-05
26 *117:49 *259:71 4.11613e-05
27 *1025:A2 *117:49 1.25603e-05
28 *22:12 *117:26 1.37349e-05
29 *23:12 *117:10 0.000150669
30 *23:26 *117:12 0.00217839
31 *23:26 *117:26 0.00275212
32 *31:14 *117:49 4.51887e-05
33 *40:22 *117:49 4.51815e-05
34 *43:26 *117:49 2.55481e-05
35 *45:24 *117:26 2.28342e-05
36 *57:50 *117:49 4.51815e-05
37 *93:53 *117:49 5.55743e-06
38 *95:69 *117:49 0
*RES
1 *978:X *117:10 48.7861 
2 *117:10 *117:12 4.0488 
3 *117:12 *117:26 44.7152 
4 *117:26 *981:A3 38 
5 *117:12 *117:49 46.1356 
6 *117:49 *1025:A3 23 
*END

*D_NET *118 0.0176624
*CONN
*I *980:B I *D sky130_fd_sc_hd__or2_2
*I *1105:C I *D sky130_fd_sc_hd__and3_1
*I *1006:B1 I *D sky130_fd_sc_hd__a31oi_4
*I *979:Y O *D sky130_fd_sc_hd__nor2_2
*CAP
1 *980:B 0
2 *1105:C 0.000145265
3 *1006:B1 0
4 *979:Y 0.000755584
5 *118:80 0.000596146
6 *118:63 0.00107603
7 *118:59 0.000913059
8 *118:41 0.00150438
9 *118:24 0.00153212
10 *118:14 0.00136177
11 *1105:C *128:20 1.58805e-05
12 *1105:C *131:14 2.05394e-05
13 *1105:C *180:6 1.95448e-05
14 *1105:C *188:18 0.00021286
15 *1105:C *239:130 2.13713e-05
16 *118:14 *1052:A1 5.79559e-05
17 *118:14 *1172:CLK 3.26088e-05
18 *118:14 *149:28 0.000108161
19 *118:14 *198:16 0
20 *118:14 *234:18 3.04456e-05
21 *118:14 *234:31 1.09111e-05
22 *118:24 *145:16 4.40195e-05
23 *118:24 *145:27 3.41998e-06
24 *118:24 *150:44 0.000915988
25 *118:41 *976:A1 5.58003e-05
26 *118:41 *1006:A1 0.000145171
27 *118:41 *127:37 0.000160963
28 *118:59 *1041:A1 1.35999e-05
29 *118:59 *130:84 9.41704e-05
30 *118:59 *180:6 0.000438353
31 *118:59 *195:6 1.56542e-05
32 *118:59 *206:28 0.000180083
33 *118:59 *218:22 0.000126457
34 *118:63 *128:20 9.77405e-05
35 *118:63 *130:84 0.000234669
36 *118:63 *195:6 0.000479315
37 *118:63 *260:26 0.000137651
38 *118:80 *1045:B 4.51965e-05
39 *118:80 *128:20 0.00072258
40 *118:80 *180:76 5.56279e-05
41 *118:80 *188:14 0.000183295
42 *118:80 *188:18 0.00148422
43 *979:A *118:14 5.3304e-05
44 *31:10 *118:14 1.92855e-05
45 *32:12 *118:41 6.82841e-05
46 *35:14 *118:14 0
47 *48:32 *118:24 0.000902818
48 *60:22 *118:41 4.7102e-05
49 *71:12 *118:41 0.000546832
50 *73:16 *118:41 0
51 *76:32 *118:80 0.00019515
52 *77:145 *118:14 0.000179725
53 *82:30 *118:59 0.000153798
54 *84:128 *118:59 0.000231196
55 *100:77 *118:59 0.000233735
56 *105:10 *1105:C 0
57 *112:41 *118:41 0.000546832
58 *112:47 *118:41 0.000198
59 *113:10 *118:41 3.87221e-06
60 *113:84 *118:63 1.03836e-05
61 *114:16 *118:41 0.000113496
62 *115:8 *118:41 0.000109991
*RES
1 *979:Y *118:14 48.2432 
2 *118:14 *118:24 34.5888 
3 *118:24 *1006:B1 23 
4 *118:24 *118:41 49.9893 
5 *118:41 *118:59 43.9407 
6 *118:59 *118:63 23.2443 
7 *118:63 *1105:C 41.19 
8 *118:63 *118:80 36.9157 
9 *118:80 *980:B 23 
*END

*D_NET *119 0.0238584
*CONN
*I *1025:B1 I *D sky130_fd_sc_hd__a31o_1
*I *981:B1 I *D sky130_fd_sc_hd__a31oi_4
*I *980:X O *D sky130_fd_sc_hd__or2_2
*CAP
1 *1025:B1 0
2 *981:B1 0
3 *980:X 0.000955704
4 *119:75 0.000747001
5 *119:56 0.00226218
6 *119:46 0.00349247
7 *119:40 0.00101435
8 *119:30 0.00132535
9 *119:12 0.00174999
10 *119:12 *1042:A3 0.00018197
11 *119:12 *150:60 0.00105464
12 *119:30 *1078:A3 0
13 *119:30 *1095:A2 2.03802e-05
14 *119:30 *1100:A_N 4.07138e-06
15 *119:30 *196:41 0.00040009
16 *119:30 *201:72 2.41841e-05
17 *119:30 *237:78 6.77278e-05
18 *119:40 *1078:A1 0.000112344
19 *119:40 *1078:A2 2.2065e-05
20 *119:40 *251:14 9.9437e-05
21 *119:40 *257:14 0.000137368
22 *119:46 *123:16 0.000130391
23 *119:46 *230:77 0.000245592
24 *119:46 *261:14 0.00011508
25 *119:56 *155:61 8.99259e-06
26 *119:56 *179:32 9.57802e-05
27 *119:56 *204:28 7.23235e-05
28 *119:56 *228:24 0.000186838
29 *119:56 *230:77 0.00025354
30 *119:56 *236:33 0.000920478
31 *119:56 *255:71 0.000128137
32 *119:56 *265:10 5.0005e-05
33 *119:75 *120:72 0.000888572
34 *119:75 *248:23 1.29848e-05
35 *119:75 *259:71 1.04083e-05
36 *1183:RESET_B *119:56 2.11157e-05
37 *21:34 *119:75 0.000896519
38 *34:26 *119:56 0.000130189
39 *39:24 *119:30 0.000355055
40 *40:22 *119:75 2.16954e-05
41 *43:26 *119:56 0.000159675
42 *75:8 *119:75 7.11277e-05
43 *83:113 *119:12 0.000359529
44 *84:67 *119:75 6.65013e-06
45 *84:81 *119:75 1.73694e-05
46 *88:64 *119:12 0.000941061
47 *89:22 *119:46 0.000222398
48 *89:22 *119:56 0.00199383
49 *90:84 *119:40 0.000161741
50 *93:22 *119:56 0
51 *93:53 *119:75 4.44897e-05
52 *103:43 *119:46 0.000421587
53 *106:37 *119:30 0.000440335
54 *112:91 *119:30 2.85501e-06
55 *115:40 *119:56 0.000800731
*RES
1 *980:X *119:12 44.7707 
2 *119:12 *119:30 43.6862 
3 *119:30 *119:40 45.3432 
4 *119:40 *119:46 14.8358 
5 *119:46 *119:56 31.9578 
6 *119:56 *981:B1 23 
7 *119:46 *119:75 42.592 
8 *119:75 *1025:B1 23 
*END

*D_NET *120 0.0302276
*CONN
*I *993:A I *D sky130_fd_sc_hd__clkbuf_1
*I *1058:B I *D sky130_fd_sc_hd__and4_1
*I *982:B I *D sky130_fd_sc_hd__xnor2_2
*I *1042:A2 I *D sky130_fd_sc_hd__a31o_1
*I *1027:B I *D sky130_fd_sc_hd__and2_1
*I *1028:A2 I *D sky130_fd_sc_hd__a211o_1
*I *981:Y O *D sky130_fd_sc_hd__a31oi_4
*CAP
1 *993:A 0
2 *1058:B 0.000149859
3 *982:B 0
4 *1042:A2 2.52923e-05
5 *1027:B 0
6 *1028:A2 0
7 *981:Y 0.000383215
8 *120:105 0.000592492
9 *120:88 0.00104974
10 *120:78 0.000581813
11 *120:76 0.00012041
12 *120:72 0.00246523
13 *120:47 0.00102213
14 *120:39 0.00437757
15 *120:26 0.00202179
16 *120:12 0.00139437
17 *1058:B *1058:C 5.3304e-05
18 *120:12 *204:44 0.000194915
19 *120:12 *249:33 0
20 *120:12 *265:10 2.48259e-05
21 *120:26 *130:35 0.00081678
22 *120:26 *204:44 0.000420059
23 *120:39 *1028:B1 0.00027539
24 *120:39 *1071:B_N 5.56356e-05
25 *120:39 *121:87 0.00072376
26 *120:39 *124:18 0.000394508
27 *120:39 *209:45 2.19845e-05
28 *120:39 *259:50 0.000766663
29 *120:47 *155:34 1.55203e-05
30 *120:47 *269:18 0.000930731
31 *120:72 *145:73 0.000498353
32 *120:72 *155:61 0.00017414
33 *120:72 *160:18 0.000249366
34 *120:72 *222:30 0.000246441
35 *120:76 *159:18 0.000138103
36 *120:76 *170:31 0.000178227
37 *120:88 *1049:A 0.000115715
38 *120:88 *170:31 5.79413e-06
39 *120:88 *188:14 0.000311261
40 *120:88 *256:18 2.46906e-05
41 *120:105 *1042:A3 0.000306724
42 *120:105 *188:14 0.000348829
43 *120:105 *201:72 0.000687552
44 *120:105 *201:80 5.50106e-05
45 *120:105 *225:10 1.75427e-05
46 *120:105 *237:78 6.03002e-05
47 *120:105 *256:18 1.71761e-05
48 *953:B1 *120:88 4.19026e-05
49 *1031:B *120:88 0.00030232
50 *1183:RESET_B *120:12 0
51 *21:34 *120:72 0.000146152
52 *24:24 *120:72 3.63994e-05
53 *33:16 *120:47 0.000177122
54 *40:22 *120:72 3.14565e-05
55 *49:18 *120:26 0.000409854
56 *49:51 *120:72 1.85483e-05
57 *53:20 *120:26 2.2177e-05
58 *63:28 *120:72 0.000172841
59 *81:72 *120:105 0.000150509
60 *83:20 *120:72 1.87002e-05
61 *83:30 *120:72 0.00104713
62 *84:67 *120:72 2.55053e-05
63 *84:81 *120:47 0.000548937
64 *84:81 *120:72 0.000523929
65 *90:70 *120:26 0.000145467
66 *91:24 *1058:B 0.000227317
67 *91:24 *120:88 2.29099e-05
68 *92:10 *120:72 2.05503e-05
69 *92:10 *120:76 4.05745e-05
70 *94:28 *120:12 2.0599e-05
71 *95:12 *120:12 0.000423714
72 *98:60 *120:26 6.56284e-05
73 *98:60 *120:39 5.58003e-05
74 *98:79 *1058:B 5.3304e-05
75 *98:91 *120:105 0.000476926
76 *98:104 *120:88 0.000100069
77 *99:26 *120:47 0.00092215
78 *99:26 *120:72 0.000159753
79 *103:43 *120:72 2.26497e-05
80 *106:53 *120:88 1.57659e-05
81 *106:111 *120:26 4.30894e-05
82 *108:18 *1058:B 0.000219325
83 *108:18 *120:88 0.000117689
84 *110:68 *120:76 6.08617e-05
85 *115:40 *120:12 0.000129916
86 *115:40 *120:26 8.30566e-06
87 *119:75 *120:72 0.000888572
*RES
1 *981:Y *120:12 48.3351 
2 *120:12 *120:26 43.3362 
3 *120:26 *1028:A2 23 
4 *120:26 *120:39 36.75 
5 *120:39 *120:47 38.0964 
6 *120:47 *1027:B 23 
7 *120:39 *120:72 41.0494 
8 *120:72 *120:76 18.0036 
9 *120:76 *120:78 15 
10 *120:78 *120:88 24.3629 
11 *120:88 *1042:A2 23.4971 
12 *120:88 *120:105 45.2871 
13 *120:105 *982:B 23 
14 *120:78 *1058:B 41.9357 
15 *120:76 *993:A 23 
*END

*D_NET *121 0.0281975
*CONN
*I *987:A2 I *D sky130_fd_sc_hd__o21a_1
*I *988:C I *D sky130_fd_sc_hd__or3_2
*I *982:Y O *D sky130_fd_sc_hd__xnor2_2
*CAP
1 *987:A2 8.41032e-05
2 *988:C 0.000398
3 *982:Y 0.000181162
4 *121:87 0.000906492
5 *121:73 0.00324818
6 *121:44 0.000638228
7 *121:34 0.00136363
8 *121:18 0.00710196
9 *121:10 0.00373393
10 *987:A2 *270:18 9.64943e-05
11 *988:C *988:B 4.83798e-05
12 *988:C *144:18 0.000187708
13 *988:C *182:6 5.3304e-05
14 *988:C *206:18 0.000120398
15 *988:C *240:10 0
16 *121:10 *263:18 0.000224411
17 *121:18 *183:46 0.000238715
18 *121:18 *207:18 0.000467761
19 *121:34 *183:46 6.84658e-05
20 *121:34 *243:20 6.07266e-05
21 *121:44 *144:18 9.86025e-05
22 *121:44 *240:10 7.30875e-05
23 *121:73 *130:56 4.48257e-05
24 *121:73 *141:34 0.000139597
25 *121:73 *164:8 6.35684e-05
26 *121:73 *191:64 5.97282e-05
27 *121:73 *209:45 6.34811e-05
28 *121:73 *212:58 0.00179016
29 *121:73 *227:53 0.000125942
30 *121:73 *255:48 0.000380235
31 *121:87 *1033:A 0.000205493
32 *121:87 *124:10 0.000354095
33 *121:87 *164:8 0.00042359
34 *121:87 *169:35 0.000252514
35 *121:87 *209:45 0.000162218
36 *121:87 *270:18 8.02575e-06
37 *987:A1 *987:A2 0.000140931
38 *1025:A2 *121:73 0.000139182
39 *32:52 *121:87 1.30324e-05
40 *40:22 *121:73 0.000204855
41 *46:20 *121:18 5.30476e-05
42 *50:10 *121:10 0.000140646
43 *51:14 *121:34 0.000167024
44 *57:50 *121:73 0.000324181
45 *65:30 *121:73 0.000385307
46 *76:32 *121:18 0
47 *76:38 *121:44 7.06078e-05
48 *82:40 *121:73 4.67488e-05
49 *82:135 *121:18 0.00102989
50 *83:42 *121:73 4.15283e-06
51 *83:48 *121:34 8.29264e-05
52 *85:63 *121:10 0.000137651
53 *88:78 *121:34 0
54 *89:22 *121:18 0.000265645
55 *89:44 *121:34 7.45036e-05
56 *89:56 *988:C 0.000291359
57 *90:24 *121:34 4.36401e-06
58 *90:24 *121:73 0.000133119
59 *95:91 *121:18 8.85541e-06
60 *103:10 *121:87 4.24266e-05
61 *103:26 *987:A2 2.32101e-05
62 *116:23 *121:10 0.000143182
63 *116:78 *121:87 6.86529e-05
64 *117:49 *121:73 1.09903e-05
65 *120:39 *121:87 0.00072376
*RES
1 *982:Y *121:10 42.6089 
2 *121:10 *121:18 23.9128 
3 *121:18 *121:34 39.7368 
4 *121:34 *121:44 49.5364 
5 *121:44 *988:C 47.1143 
6 *121:18 *121:73 48.7249 
7 *121:73 *121:87 48.8293 
8 *121:87 *987:A2 25.0507 
*END

*D_NET *122 0.0218616
*CONN
*I *1054:B I *D sky130_fd_sc_hd__or2_1
*I *1014:B I *D sky130_fd_sc_hd__nor2_1
*I *984:A I *D sky130_fd_sc_hd__nand2_2
*I *983:X O *D sky130_fd_sc_hd__dlymetal6s2s_1
*CAP
1 *1054:B 0
2 *1014:B 0
3 *984:A 0
4 *983:X 7.00808e-05
5 *122:62 0.00110706
6 *122:56 0.00205956
7 *122:39 0.000723332
8 *122:35 0.00291027
9 *122:29 0.00266137
10 *122:16 0.000720804
11 *122:10 0.00119524
12 *122:8 0.00102259
13 *122:8 *267:38 1.05235e-05
14 *122:16 *1078:A2 5.56279e-05
15 *122:16 *174:67 0.000109457
16 *122:29 *146:24 6.90048e-05
17 *122:29 *174:67 6.33387e-05
18 *122:29 *271:68 9.05529e-05
19 *122:35 *130:39 0.000161953
20 *122:35 *199:8 0.000160888
21 *122:39 *266:51 0.000190284
22 *122:39 *271:43 0.00159948
23 *122:56 *150:83 0.000269337
24 *122:56 *197:6 1.56542e-05
25 *122:56 *208:36 0.000176563
26 *122:56 *251:69 0.00010602
27 *122:56 *267:38 5.119e-05
28 *122:62 *155:94 0.000341693
29 *122:62 *197:6 0.00122014
30 *122:62 *218:10 0.000791146
31 *122:62 *263:84 0.000387998
32 *968:A *122:39 0.000141355
33 *983:A *122:8 1.00493e-05
34 *1097:C1 *122:56 4.49877e-05
35 *1148:S *122:35 0.000269099
36 *21:34 *122:29 9.67642e-05
37 *49:76 *122:29 3.81121e-05
38 *71:43 *122:16 0.000693783
39 *74:10 *122:35 0.00052315
40 *77:43 *122:16 0.000564738
41 *86:12 *122:62 0.000178221
42 *93:43 *122:16 7.85166e-05
43 *97:16 *122:56 1.75427e-05
44 *97:22 *122:56 0.000475292
45 *98:30 *122:16 0.000221195
46 *98:30 *122:29 8.18131e-05
47 *107:12 *122:29 3.24914e-05
48 *116:128 *122:16 5.3304e-05
*RES
1 *983:X *122:8 24.1186 
2 *122:8 *122:10 15 
3 *122:10 *122:16 30.2043 
4 *122:16 *984:A 23 
5 *122:10 *122:29 22.9543 
6 *122:29 *122:35 45.5121 
7 *122:35 *122:39 32.7729 
8 *122:39 *1014:B 23 
9 *122:8 *122:56 45.7843 
10 *122:56 *122:62 40.0229 
11 *122:62 *1054:B 38 
*END

*D_NET *123 0.024546
*CONN
*I *1020:B I *D sky130_fd_sc_hd__nand2_1
*I *1040:S I *D sky130_fd_sc_hd__mux2_1
*I *985:B1 I *D sky130_fd_sc_hd__o221a_1
*I *984:Y O *D sky130_fd_sc_hd__nand2_2
*CAP
1 *1020:B 0
2 *1040:S 0
3 *985:B1 0
4 *984:Y 0.000152065
5 *123:80 0.000981346
6 *123:72 0.00171412
7 *123:59 0.00165368
8 *123:42 0.000809783
9 *123:22 0.00402644
10 *123:16 0.00205018
11 *123:6 0.00137204
12 *123:6 *262:45 0.000179473
13 *123:16 *1032:A1 6.17437e-06
14 *123:16 *174:73 6.9553e-05
15 *123:16 *251:16 1.21972e-05
16 *123:16 *251:34 5.06076e-05
17 *123:16 *251:61 8.28923e-05
18 *123:16 *257:10 0.000223906
19 *123:16 *261:14 0.000279889
20 *123:22 *158:14 0.000561415
21 *123:22 *174:73 5.52432e-05
22 *123:22 *196:41 2.05503e-05
23 *123:22 *198:54 0.000118023
24 *123:22 *202:27 2.9813e-05
25 *123:22 *251:34 5.63032e-05
26 *123:22 *262:8 8.24122e-05
27 *123:42 *172:16 3.27275e-05
28 *123:42 *202:27 0.000827392
29 *123:42 *233:12 0.000469166
30 *123:42 *233:19 8.27131e-05
31 *123:42 *233:133 0.000247539
32 *123:42 *262:8 9.28078e-06
33 *123:59 *1040:A0 2.02872e-05
34 *123:59 *172:16 5.3304e-05
35 *123:59 *185:36 0.000636844
36 *123:59 *187:12 5.72739e-05
37 *123:59 *204:75 0.000220592
38 *123:59 *233:137 0.000170216
39 *123:59 *233:143 9.79925e-05
40 *123:59 *255:83 0.000654629
41 *123:72 *251:14 0.00114959
42 *123:72 *262:45 0.00156887
43 *123:80 *1020:A 0.000155089
44 *123:80 *1098:B1 2.97099e-05
45 *123:80 *194:10 0.000109959
46 *123:80 *221:33 0.00120149
47 *964:A *123:42 0.00010091
48 *985:C1 *123:42 7.5682e-05
49 *20:16 *123:59 2.2065e-05
50 *25:18 *123:22 3.24476e-06
51 *65:18 *123:80 0.00145608
52 *81:100 *123:42 1.24376e-05
53 *96:36 *123:22 0.000105806
54 *96:36 *123:42 9.23705e-06
55 *103:43 *123:16 3.30268e-05
56 *110:14 *123:22 0.000214329
57 *119:46 *123:16 0.000130391
*RES
1 *984:Y *123:6 25.0507 
2 *123:6 *123:16 39.7771 
3 *123:16 *123:22 38.0757 
4 *123:22 *123:42 32.8971 
5 *123:42 *985:B1 23 
6 *123:22 *123:59 44.0621 
7 *123:59 *1040:S 23 
8 *123:6 *123:72 33.415 
9 *123:72 *123:80 39.2979 
10 *123:80 *1020:B 23 
*END

*D_NET *124 0.0147604
*CONN
*I *986:B1 I *D sky130_fd_sc_hd__a21o_1
*I *999:B1 I *D sky130_fd_sc_hd__a21oi_1
*I *985:X O *D sky130_fd_sc_hd__o221a_1
*CAP
1 *986:B1 0
2 *999:B1 3.23315e-05
3 *985:X 0.000375409
4 *124:67 0.00122347
5 *124:38 0.00237463
6 *124:36 0.00179955
7 *124:28 0.000944217
8 *124:18 0.000768407
9 *124:10 0.000880328
10 *999:B1 *999:A1 4.19167e-05
11 *124:10 *169:35 1.75524e-05
12 *124:18 *253:14 0.000264546
13 *124:28 *226:30 1.77495e-05
14 *124:28 *227:14 9.64943e-05
15 *124:28 *253:14 0.000227759
16 *124:36 *1109:A1 0.000137651
17 *124:36 *138:30 0.00146569
18 *124:36 *217:16 0.000538008
19 *124:36 *223:50 0.000137361
20 *124:38 *999:A1 2.24644e-05
21 *124:38 *137:24 0.00123372
22 *124:38 *138:18 2.03764e-06
23 *124:67 *986:A1 0.000156352
24 *124:67 *999:A1 1.03836e-05
25 *124:67 *125:6 1.94693e-05
26 *124:67 *125:20 7.48906e-05
27 *124:67 *257:49 1.34415e-05
28 *124:67 *263:50 3.18198e-05
29 *964:A *124:10 1.59094e-05
30 *974:B *124:67 0.000196728
31 *1143:A *124:67 8.50247e-05
32 *32:36 *124:10 0
33 *56:14 *124:67 0.000106832
34 *64:68 *124:36 9.9437e-05
35 *82:18 *124:67 0.000180841
36 *108:80 *124:67 5.11621e-05
37 *115:14 *124:36 9.9437e-05
38 *116:96 *124:18 0.000268774
39 *120:39 *124:18 0.000394508
40 *121:87 *124:10 0.000354095
*RES
1 *985:X *124:10 44.4007 
2 *124:10 *124:18 38.4514 
3 *124:18 *124:28 49.4121 
4 *124:28 *124:36 47.8971 
5 *124:36 *124:38 15.0127 
6 *124:38 *999:B1 24.0202 
7 *124:38 *124:67 48.648 
8 *124:67 *986:B1 23 
*END

*D_NET *125 0.0160515
*CONN
*I *988:B I *D sky130_fd_sc_hd__or3_2
*I *987:B1 I *D sky130_fd_sc_hd__o21a_1
*I *986:X O *D sky130_fd_sc_hd__a21o_1
*CAP
1 *988:B 0.000531277
2 *987:B1 0
3 *986:X 8.38664e-05
4 *125:59 0.00119853
5 *125:46 0.000659758
6 *125:32 0.00190145
7 *125:20 0.00221946
8 *125:6 0.00172889
9 *988:B *1043:B 0.000153117
10 *988:B *145:16 2.93985e-05
11 *988:B *182:6 5.3304e-05
12 *125:20 *986:A1 0.000684882
13 *125:20 *127:37 0.000165726
14 *125:20 *130:56 0.000317917
15 *125:20 *212:58 0.000784682
16 *125:20 *234:65 5.1986e-06
17 *125:20 *235:20 0
18 *125:20 *257:49 4.62843e-05
19 *125:32 *1099:A 0.000592452
20 *125:32 *137:24 0.000192674
21 *125:32 *138:18 0.000435671
22 *125:32 *227:33 0.000593083
23 *125:32 *255:36 9.00703e-05
24 *125:46 *1077:A1 6.17437e-06
25 *125:46 *1077:C1 0.000294376
26 *125:46 *174:108 1.21972e-05
27 *125:46 *205:24 0.000605414
28 *125:46 *217:16 0.000718385
29 *125:59 *144:26 0
30 *125:59 *176:16 0.000340097
31 *125:59 *197:36 0
32 *125:59 *216:79 1.05658e-05
33 *125:59 *223:34 0.00015795
34 *974:B *125:20 5.07948e-05
35 *988:C *988:B 4.83798e-05
36 *1143:A *125:20 0.000149675
37 *45:24 *125:20 0.000141468
38 *54:12 *125:46 0.000230912
39 *55:14 *125:20 6.61938e-05
40 *71:12 *125:20 3.22465e-05
41 *82:12 *125:59 0
42 *82:18 *125:6 6.58415e-06
43 *88:78 *125:59 0.000485775
44 *89:66 *125:59 0
45 *90:8 *125:6 3.22051e-05
46 *108:80 *125:20 0.000100061
47 *124:67 *125:6 1.94693e-05
48 *124:67 *125:20 7.48906e-05
*RES
1 *986:X *125:6 24.5743 
2 *125:6 *125:20 44.3052 
3 *125:20 *125:32 37.8686 
4 *125:32 *125:46 45.7636 
5 *125:46 *987:B1 23 
6 *125:6 *125:59 44.3757 
7 *125:59 *988:B 32.2179 
*END

*D_NET *126 0.0207928
*CONN
*I *1032:B1 I *D sky130_fd_sc_hd__a21oi_2
*I *274:DIODE I *D sky130_fd_sc_hd__diode_2
*I *989:A I *D sky130_fd_sc_hd__or2b_1
*I *987:X O *D sky130_fd_sc_hd__o21a_1
*CAP
1 *1032:B1 0
2 *274:DIODE 0
3 *989:A 0.000173692
4 *987:X 0.00019295
5 *126:56 0.00130782
6 *126:28 0.00135307
7 *126:20 0.0026132
8 *126:14 0.00236645
9 *126:10 0.0024334
10 *126:10 *1077:A1 5.61255e-06
11 *126:10 *1077:B1 4.67488e-05
12 *126:10 *1077:C1 1.59094e-05
13 *126:10 *262:26 1.23172e-05
14 *126:14 *129:26 0.000418039
15 *126:14 *205:24 5.95625e-06
16 *126:14 *212:30 0.000285477
17 *126:14 *262:26 0.000148271
18 *126:20 *1006:A1 0.000813214
19 *126:20 *244:16 0.00102386
20 *126:28 *1092:A 1.27812e-05
21 *126:28 *166:16 0.000120171
22 *126:56 *171:14 0.000142053
23 *126:56 *171:20 0.000800938
24 *126:56 *174:67 1.05441e-05
25 *126:56 *238:62 0.000150513
26 *126:56 *265:53 0.000188077
27 *1150:S *126:56 0.000142166
28 *1170:D *126:20 4.98295e-05
29 *30:28 *989:A 0.000123748
30 *30:28 *126:28 0.00146551
31 *55:14 *126:20 0.000813501
32 *56:12 *126:28 0.000109567
33 *59:18 *126:20 0.000131383
34 *63:28 *126:56 0.000487179
35 *71:43 *126:56 0.000780572
36 *78:36 *126:20 0.000329573
37 *96:14 *126:20 8.88567e-05
38 *99:26 *126:10 2.05503e-05
39 *99:26 *126:14 0.00144733
40 *103:43 *126:56 1.8904e-05
41 *115:14 *126:20 0.000143107
*RES
1 *987:X *126:10 40.3718 
2 *126:10 *126:14 36.0975 
3 *126:14 *126:20 47.5007 
4 *126:20 *126:28 37.7029 
5 *126:28 *989:A 26.0243 
6 *126:28 *274:DIODE 23 
7 *126:10 *126:56 48.1356 
8 *126:56 *1032:B1 23 
*END

*D_NET *127 0.0170776
*CONN
*I *1032:A2 I *D sky130_fd_sc_hd__a21oi_2
*I *989:B_N I *D sky130_fd_sc_hd__or2b_1
*I *988:X O *D sky130_fd_sc_hd__or3_2
*CAP
1 *1032:A2 0
2 *989:B_N 0.000197853
3 *988:X 0.000120961
4 *127:53 0.00119493
5 *127:37 0.00345375
6 *127:27 0.00268239
7 *127:10 0.000742392
8 *989:B_N *180:39 0.000222563
9 *989:B_N *206:18 0
10 *127:10 *180:39 0.000138747
11 *127:10 *182:24 5.53115e-05
12 *127:10 *182:37 2.64616e-05
13 *127:27 *182:24 0.00015022
14 *127:27 *236:119 0.000556546
15 *127:27 *260:46 0.00151262
16 *127:37 *145:16 0
17 *127:37 *145:27 0
18 *127:37 *181:26 0.00113229
19 *127:37 *197:36 0
20 *127:37 *200:28 5.84015e-05
21 *127:37 *216:14 0
22 *127:37 *235:20 0
23 *127:37 *235:31 0
24 *127:37 *239:70 0
25 *127:37 *239:93 8.91337e-05
26 *127:37 *248:41 0.000128273
27 *127:37 *267:14 0
28 *127:53 *1032:A1 5.56279e-05
29 *127:53 *1095:A2 3.32202e-05
30 *127:53 *161:76 5.3304e-05
31 *127:53 *178:67 0.000231039
32 *127:53 *178:71 2.02872e-05
33 *127:53 *198:28 0.000214505
34 *127:53 *198:44 0.000270127
35 *127:53 *228:10 3.05357e-05
36 *127:53 *237:78 1.00438e-05
37 *127:53 *242:24 0.000296752
38 *127:53 *245:14 1.67025e-05
39 *127:53 *251:16 0.000118836
40 *127:53 *257:10 8.73233e-05
41 *127:53 *257:18 5.78878e-05
42 *1041:S *127:37 1.28753e-05
43 *1143:A *127:37 7.26893e-06
44 *30:28 *989:B_N 0.000140328
45 *44:10 *127:37 2.05503e-05
46 *57:36 *127:37 3.99486e-05
47 *60:22 *127:37 0
48 *65:18 *127:37 0.000952459
49 *70:32 *127:37 1.68469e-05
50 *81:132 *127:37 9.7654e-05
51 *82:8 *127:27 2.50118e-05
52 *83:94 *127:53 0.000667437
53 *112:41 *127:37 0.000597167
54 *112:47 *127:37 0.000200099
55 *112:91 *127:53 1.42439e-05
56 *118:41 *127:37 0.000160963
57 *125:20 *127:37 0.000165726
*RES
1 *988:X *127:10 40.5271 
2 *127:10 *989:B_N 43.0129 
3 *127:10 *127:27 47.7729 
4 *127:27 *127:37 44.7087 
5 *127:37 *127:53 46.5451 
6 *127:53 *1032:A2 23 
*END

*D_NET *128 0.0224117
*CONN
*I *992:A2 I *D sky130_fd_sc_hd__a21oi_2
*I *990:B I *D sky130_fd_sc_hd__or2_1
*I *989:X O *D sky130_fd_sc_hd__or2b_1
*CAP
1 *992:A2 3.76781e-05
2 *990:B 0
3 *989:X 9.62677e-05
4 *128:44 0.00212742
5 *128:28 0.00294173
6 *128:20 0.00199126
7 *128:12 0.00218454
8 *128:8 0.00106617
9 *128:12 *166:16 0
10 *128:12 *166:28 0.000262113
11 *128:12 *180:31 0.000243477
12 *128:12 *180:39 1.22803e-05
13 *128:12 *188:18 0.000437505
14 *128:12 *212:58 7.41424e-05
15 *128:12 *245:16 0.000432774
16 *128:12 *246:10 0.00155809
17 *128:20 *166:28 0
18 *128:20 *188:18 6.43464e-06
19 *128:20 *224:12 0
20 *128:44 *949:A_N 1.32807e-05
21 *128:44 *141:14 6.91354e-05
22 *128:44 *141:66 3.9268e-05
23 *128:44 *167:22 0.000411905
24 *128:44 *168:20 0.00146811
25 *128:44 *170:43 0.000401599
26 *128:44 *207:18 0.0010347
27 *128:44 *207:32 9.39667e-05
28 *128:44 *234:121 9.28078e-06
29 *128:44 *234:134 0.000583089
30 *128:44 *247:71 0.000797856
31 *128:44 *256:18 3.24141e-05
32 an[3] *128:20 0
33 seg[4] *128:12 2.44846e-05
34 seg[5] *128:12 2.47015e-05
35 *1105:C *128:20 1.58805e-05
36 *22:18 *128:44 5.5792e-05
37 *30:28 *128:8 2.20111e-05
38 *46:20 *128:44 0.000149655
39 *76:32 *128:20 0.000221412
40 *82:162 *128:28 0.000680325
41 *82:205 *128:12 1.27508e-05
42 *84:147 *128:12 1.42282e-05
43 *85:57 *128:28 4.67998e-05
44 *85:57 *128:44 1.87522e-05
45 *87:26 *128:44 0.000177423
46 *88:12 *128:44 6.51997e-06
47 *95:91 *128:44 2.29707e-05
48 *98:30 *128:44 8.98616e-05
49 *105:6 *128:28 0.000329705
50 *105:10 *128:20 0.000997815
51 *106:53 *128:44 0
52 *110:41 *128:44 0.00012361
53 *113:55 *128:44 2.75733e-06
54 *113:84 *128:20 8.28647e-05
55 *116:23 *128:28 4.45778e-05
56 *118:63 *128:20 9.77405e-05
57 *118:80 *128:20 0.00072258
*RES
1 *989:X *128:8 39.0979 
2 *128:8 *128:12 45.0771 
3 *128:12 *128:20 46.2164 
4 *128:20 *128:28 47.0168 
5 *128:28 *128:44 46.0126 
6 *128:44 *990:B 23 
7 *128:12 *992:A2 23.6214 
*END

*D_NET *129 0.0136518
*CONN
*I *1016:A1 I *D sky130_fd_sc_hd__a22o_4
*I *990:X O *D sky130_fd_sc_hd__or2_1
*CAP
1 *1016:A1 0
2 *990:X 0.000109071
3 *129:36 0.00170621
4 *129:26 0.00348997
5 *129:8 0.00189283
6 *129:8 *256:18 0.000141344
7 *129:26 *1077:A1 0.000152296
8 *129:26 *1077:C1 0.000392574
9 *129:26 *158:26 0.000238797
10 *129:26 *205:24 0.00113004
11 *129:26 *210:49 0.000387457
12 *129:26 *212:30 0.000287568
13 *129:26 *234:121 2.36519e-05
14 *129:26 *262:26 0.000941844
15 *129:36 *1170:CLK 0.00107769
16 *129:36 *174:134 0.000357147
17 *938:A *129:36 0.000156585
18 *1124:S *129:36 0.000143011
19 *1170:D *129:36 0.000244112
20 *43:26 *129:26 4.24694e-06
21 *54:12 *129:26 6.88848e-05
22 *99:43 *129:26 1.09826e-05
23 *100:20 *129:26 0
24 *100:32 *129:26 0.000211843
25 *113:55 *129:26 6.56284e-05
26 *126:14 *129:26 0.000418039
*RES
1 *990:X *129:8 39.5743 
2 *129:8 *129:26 40.0614 
3 *129:26 *129:36 42.4879 
4 *129:36 *1016:A1 23 
*END

*D_NET *130 0.0308215
*CONN
*I *992:B1 I *D sky130_fd_sc_hd__a21oi_2
*I *1060:A I *D sky130_fd_sc_hd__clkbuf_1
*I *1034:B1 I *D sky130_fd_sc_hd__a21oi_1
*I *991:X O *D sky130_fd_sc_hd__o21a_2
*CAP
1 *992:B1 0
2 *1060:A 0
3 *1034:B1 5.51174e-05
4 *991:X 0
5 *130:84 0.000744944
6 *130:76 0.00157335
7 *130:56 0.00362614
8 *130:39 0.00103115
9 *130:35 0.00283353
10 *130:10 0.0023268
11 *130:4 0.00326703
12 *1034:B1 *169:29 0.000135037
13 *1034:B1 *217:30 0.000137361
14 *130:10 *138:30 2.17486e-05
15 *130:10 *161:42 0.000199478
16 *130:10 *231:12 0.000980362
17 *130:10 *233:90 9.17365e-05
18 *130:35 *161:42 2.05503e-05
19 *130:35 *163:51 0
20 *130:35 *171:52 2.93599e-05
21 *130:35 *178:38 0.000131078
22 *130:35 *179:32 2.54437e-05
23 *130:35 *185:36 7.21896e-05
24 *130:35 *204:44 7.58377e-05
25 *130:39 *153:43 0
26 *130:39 *161:32 0.000518189
27 *130:39 *191:142 4.06926e-05
28 *130:39 *199:8 5.37358e-05
29 *130:39 *222:30 0.000318904
30 *130:56 *171:52 5.35681e-05
31 *130:56 *212:58 0.000116594
32 *130:56 *226:30 0.000236678
33 *130:56 *231:12 4.3198e-05
34 *130:56 *253:14 0.000260998
35 *130:56 *257:49 5.10636e-05
36 *130:56 *259:34 0.00100277
37 *130:76 *131:14 0.00013213
38 *130:76 *181:26 4.24018e-05
39 *130:76 *183:46 5.27519e-06
40 *130:76 *197:28 4.60157e-05
41 *130:76 *218:10 4.82567e-05
42 *130:76 *239:93 0.000177312
43 *130:84 *1056:B1 0.000178235
44 *130:84 *250:78 6.70361e-05
45 *130:84 *260:26 0.000137361
46 *968:A *130:39 0
47 *23:26 *130:35 0.0012491
48 *27:16 *130:10 0.00020171
49 *27:16 *130:35 1.12695e-05
50 *40:22 *130:76 2.26406e-05
51 *45:24 *130:56 0.000130169
52 *48:12 *130:76 2.55744e-05
53 *57:36 *130:76 8.35126e-06
54 *57:50 *130:56 1.22586e-05
55 *64:88 *130:35 0.000128799
56 *64:88 *130:56 0.00130734
57 *71:12 *130:76 0.000600652
58 *73:16 *130:76 0.000156797
59 *81:38 *130:39 0.00111301
60 *84:83 *130:10 0.000170602
61 *84:83 *130:56 5.3304e-05
62 *84:89 *130:10 0.000517801
63 *84:128 *130:84 0.000111215
64 *90:24 *130:76 0.000201598
65 *100:40 *130:56 2.35867e-05
66 *100:63 *130:56 0.000106652
67 *104:16 *130:39 0
68 *106:80 *130:39 3.33983e-05
69 *113:16 *130:56 0.00160072
70 *113:84 *130:76 1.87002e-05
71 *113:84 *130:84 9.60333e-05
72 *115:28 *130:56 8.08217e-05
73 *116:96 *130:56 0.000260369
74 *118:59 *130:84 9.41704e-05
75 *118:63 *130:84 0.000234669
76 *120:26 *130:35 0.00081678
77 *121:73 *130:56 4.48257e-05
78 *122:35 *130:39 0.000161953
79 *125:20 *130:56 0.000317917
*RES
1 *991:X *130:4 23 
2 *130:4 *130:10 29.065 
3 *130:10 *1034:B1 39.5743 
4 *130:10 *130:35 37.3611 
5 *130:35 *130:39 38.9146 
6 *130:39 *1060:A 23 
7 *130:4 *130:56 42.8186 
8 *130:56 *130:76 42.1768 
9 *130:76 *130:84 28.1743 
10 *130:84 *992:B1 23 
*END

*D_NET *131 0.0220111
*CONN
*I *1016:A2 I *D sky130_fd_sc_hd__a22o_4
*I *992:Y O *D sky130_fd_sc_hd__a21oi_2
*CAP
1 *1016:A2 0
2 *992:Y 0.00150662
3 *131:44 0.0025383
4 *131:32 0.00493185
5 *131:14 0.00390017
6 *131:14 *239:93 7.87134e-05
7 *131:14 *239:130 0.00014342
8 *131:32 *1006:A1 0.000390277
9 *131:32 *1117:D_N 8.78604e-05
10 *131:32 *181:26 0
11 *131:32 *191:54 2.47699e-05
12 *131:32 *235:54 0.000103474
13 *131:32 *238:62 0.000537511
14 *131:32 *239:93 0.000544394
15 *131:32 *243:20 5.94746e-05
16 *131:44 *134:31 2.26497e-05
17 *131:44 *150:44 0.000202254
18 *131:44 *154:30 9.86551e-06
19 *131:44 *184:22 0.000142229
20 *131:44 *243:20 7.5122e-06
21 *1105:C *131:14 2.05394e-05
22 *1170:D *131:44 0.000103623
23 *26:28 *131:32 0.000466338
24 *26:28 *131:44 0.00194369
25 *35:14 *131:44 9.86551e-06
26 *48:12 *131:14 3.49078e-05
27 *48:32 *131:44 0.00135384
28 *55:14 *131:32 1.58785e-05
29 *63:28 *131:14 0.000187527
30 *63:28 *131:32 1.57852e-05
31 *65:18 *131:32 8.00469e-05
32 *78:30 *131:32 0.000993061
33 *78:51 *131:32 1.87002e-05
34 *80:14 *131:44 0.000570442
35 *81:72 *131:32 6.18147e-05
36 *82:135 *131:14 8.43956e-05
37 *95:30 *131:44 0.000205149
38 *95:139 *131:32 4.52356e-05
39 *105:10 *131:14 2.08501e-05
40 *113:84 *131:14 5.80541e-05
41 *115:8 *131:32 4.34559e-05
42 *115:14 *131:32 0.000314434
43 *130:76 *131:14 0.00013213
*RES
1 *992:Y *131:14 49.6169 
2 *131:14 *131:32 49.6781 
3 *131:32 *131:44 39.1685 
4 *131:44 *1016:A2 38 
*END

*D_NET *132 0.00638703
*CONN
*I *994:A I *D sky130_fd_sc_hd__buf_1
*I *993:X O *D sky130_fd_sc_hd__clkbuf_1
*CAP
1 *994:A 0
2 *993:X 0
3 *132:10 0.00232248
4 *132:4 0.00232248
5 *132:10 *1169:CLK 0.000202887
6 *132:10 *170:31 0.000127754
7 *132:10 *233:147 0.000245572
8 *132:10 *233:154 5.40876e-05
9 *132:10 *237:14 0.000128032
10 *37:10 *132:10 0.000111714
11 *88:12 *132:10 2.3191e-05
12 *102:16 *132:10 3.15657e-05
13 *110:53 *132:10 0.000593365
14 *110:68 *132:10 0.00022391
*RES
1 *993:X *132:4 23 
2 *132:4 *132:10 46.4443 
3 *132:10 *994:A 38 
*END

*D_NET *133 0.00903922
*CONN
*I *1051:S I *D sky130_fd_sc_hd__mux2_1
*I *1001:A I *D sky130_fd_sc_hd__and2_1
*I *994:X O *D sky130_fd_sc_hd__buf_1
*CAP
1 *1051:S 0
2 *1001:A 0
3 *994:X 0.00160126
4 *133:21 0.000568379
5 *133:12 0.000281144
6 *133:8 0.000849523
7 *133:6 0.00160126
8 *133:6 *161:24 0.000353325
9 *133:21 *139:35 0.000141907
10 *133:21 *189:32 0.000271996
11 *133:21 *201:116 0.000113244
12 *19:14 *133:12 0.000905362
13 *19:14 *133:21 9.94675e-05
14 *22:18 *133:6 5.5572e-05
15 *42:10 *133:21 0.000421344
16 *57:72 *133:12 0.000903131
17 *57:72 *133:21 0.000573238
18 *69:14 *133:6 0.000299063
*RES
1 *994:X *133:6 43.6314 
2 *133:6 *133:8 15 
3 *133:8 *133:12 27.1179 
4 *133:12 *1001:A 23 
5 *133:8 *133:21 30.9914 
6 *133:21 *1051:S 23 
*END

*D_NET *134 0.0109155
*CONN
*I *1024:A I *D sky130_fd_sc_hd__nand2_1
*I *1000:A1 I *D sky130_fd_sc_hd__a21oi_1
*I *995:X O *D sky130_fd_sc_hd__buf_1
*CAP
1 *1024:A 0
2 *1000:A1 0.000162981
3 *995:X 0.000559398
4 *134:37 0.000932948
5 *134:31 0.00214558
6 *134:10 0.00193501
7 *1000:A1 *139:8 1.92253e-05
8 *134:10 *173:14 4.25209e-05
9 *134:10 *204:44 0
10 *134:10 *233:47 0.000246622
11 *134:10 *259:50 2.193e-05
12 *134:31 *1138:A 3.7314e-05
13 *134:31 *154:30 4.27083e-05
14 *134:31 *169:16 6.12484e-05
15 *134:31 *239:39 5.07687e-05
16 *134:31 *239:50 9.8592e-06
17 *134:37 *943:A 2.02872e-05
18 *134:37 *150:14 0.00177721
19 *134:37 *150:22 5.82853e-05
20 *134:37 *163:6 0.000767371
21 *134:37 *239:50 0.000463874
22 *943:B *134:37 0.000153317
23 *943:C *134:37 2.38569e-05
24 *947:B *134:31 5.3304e-05
25 *947:B *134:37 0.000525002
26 *1111:S *134:10 0.000175903
27 *20:16 *134:10 0.000108931
28 *26:34 *134:10 0
29 *26:34 *134:31 0
30 *31:10 *134:37 9.66668e-05
31 *49:39 *134:37 0.000114768
32 *49:110 *134:37 1.47795e-05
33 *64:96 *134:31 5.91105e-05
34 *95:30 *134:31 2.05503e-05
35 *112:57 *134:37 1.75562e-05
36 *113:36 *134:10 9.28078e-06
37 *113:36 *134:31 0.000164652
38 *131:44 *134:31 2.26497e-05
*RES
1 *995:X *134:10 47.715 
2 *134:10 *1000:A1 39.7193 
3 *134:10 *134:31 47.6071 
4 *134:31 *134:37 46.61 
5 *134:37 *1024:A 23 
*END

*D_NET *135 0.0102512
*CONN
*I *997:A I *D sky130_fd_sc_hd__buf_1
*I *996:X O *D sky130_fd_sc_hd__buf_1
*CAP
1 *997:A 9.79253e-05
2 *996:X 0.000773675
3 *135:10 0.00133664
4 *135:8 0.00123871
5 *135:6 0.000773675
6 *997:A *216:85 0.000279219
7 *135:6 *1050:A1 4.05745e-05
8 *135:6 *180:14 0.000107611
9 *135:6 *260:36 0.000135037
10 *135:10 *150:46 0.000260253
11 *135:10 *166:28 0
12 *135:10 *180:14 0.000251509
13 *135:10 *180:76 0.00171029
14 *135:10 *182:39 0.00157132
15 *135:10 *216:81 0
16 an[2] *135:10 0
17 *967:A *135:6 0.000139458
18 *996:A *135:6 2.64616e-05
19 *30:12 *997:A 9.82702e-06
20 *77:178 *135:6 0.000103825
21 *78:6 *135:6 0.000517111
22 *100:77 *135:6 9.41704e-05
23 *106:6 *135:6 0.000349081
24 *106:23 *135:6 0.000367798
25 *108:65 *135:6 6.70361e-05
*RES
1 *996:X *135:6 40.2964 
2 *135:6 *135:8 15 
3 *135:8 *135:10 44.515 
4 *135:10 *997:A 41.0036 
*END

*D_NET *136 0.0239043
*CONN
*I *998:A I *D sky130_fd_sc_hd__clkbuf_1
*I *997:X O *D sky130_fd_sc_hd__buf_1
*CAP
1 *998:A 0
2 *997:X 3.79195e-05
3 *136:24 0.00615647
4 *136:10 0.00619439
5 *136:24 *155:143 4.99535e-05
6 *136:24 *163:18 0.00026846
7 *136:24 *163:51 0.00144251
8 *136:24 *185:61 0.000791852
9 *136:24 *211:18 1.24684e-05
10 *136:24 *216:85 0.000142959
11 *136:24 *226:30 0.00208735
12 *136:24 *235:74 0.00110189
13 *136:24 *265:53 0.000247953
14 an[1] *136:10 1.05441e-05
15 an[1] *136:24 7.08633e-05
16 *58:22 *136:24 0.000355791
17 *63:28 *136:24 0.000253894
18 *82:177 *136:24 0.0040397
19 *102:16 *136:24 0.000218154
20 *115:40 *136:24 0.000421196
*RES
1 *997:X *136:10 46.6732 
2 *136:10 *136:24 48.2748 
3 *136:24 *998:A 38 
*END

*D_NET *137 0.0107049
*CONN
*I *999:A2 I *D sky130_fd_sc_hd__a21oi_1
*I *998:X O *D sky130_fd_sc_hd__clkbuf_1
*CAP
1 *999:A2 0
2 *998:X 0.000542293
3 *137:24 0.000892956
4 *137:20 0.00149622
5 *137:8 0.00114556
6 *137:8 *155:133 0.000127185
7 *137:20 *217:16 6.56284e-05
8 *137:20 *226:30 1.85797e-05
9 *137:24 *999:A1 3.7681e-05
10 *137:24 *1099:A 0.000935933
11 *137:24 *138:18 0.000342563
12 *137:24 *227:33 4.61639e-05
13 *137:24 *231:20 0.000318009
14 *29:18 *137:8 5.56023e-05
15 *49:18 *137:8 0.000231782
16 *64:88 *137:20 0.000907893
17 *66:6 *137:24 0.0011019
18 *66:20 *137:20 6.96212e-05
19 *101:20 *137:20 0.000914156
20 *115:40 *137:8 2.87325e-05
21 *124:38 *137:24 0.00123372
22 *125:32 *137:24 0.000192674
*RES
1 *998:X *137:8 47.8289 
2 *137:8 *137:20 34.8581 
3 *137:20 *137:24 27.7986 
4 *137:24 *999:A2 23 
*END

*D_NET *138 0.0158157
*CONN
*I *1023:A0 I *D sky130_fd_sc_hd__mux2_1
*I *1000:A2 I *D sky130_fd_sc_hd__a21oi_1
*I *999:Y O *D sky130_fd_sc_hd__a21oi_1
*CAP
1 *1023:A0 0
2 *1000:A2 4.89752e-05
3 *999:Y 0.000595535
4 *138:57 0.000887885
5 *138:34 0.00100999
6 *138:30 0.00222979
7 *138:24 0.00227348
8 *138:18 0.000712361
9 *1000:A2 *139:8 9.41704e-05
10 *1000:A2 *204:60 4.67488e-05
11 *138:18 *999:A1 7.09642e-05
12 *138:18 *231:20 0.000315677
13 *138:24 *151:27 0.000175495
14 *138:30 *223:50 0.000143564
15 *138:30 *231:12 0.000423664
16 *138:30 *233:77 0.000440309
17 *138:30 *233:90 0.000207286
18 *138:34 *249:14 9.28078e-06
19 *138:34 *249:33 0.000134561
20 *138:57 *1023:A1 7.58527e-05
21 *138:57 *162:14 8.85959e-05
22 *138:57 *230:26 0.000101174
23 *138:57 *249:33 0.000657176
24 *138:57 *265:10 9.4798e-06
25 *991:A1 *138:30 4.67488e-05
26 *991:B1 *138:30 7.3184e-05
27 *1183:RESET_B *138:57 0
28 *26:34 *138:34 0.00013227
29 *26:34 *138:57 0.00080637
30 *49:51 *138:30 9.41704e-05
31 *63:10 *138:57 0.000119498
32 *82:54 *138:24 0.000173357
33 *84:83 *138:30 0.00120812
34 *84:89 *138:30 0.000142235
35 *124:36 *138:30 0.00146569
36 *124:38 *138:18 2.03764e-06
37 *125:32 *138:18 0.000435671
38 *130:10 *138:30 2.17486e-05
39 *137:24 *138:18 0.000342563
*RES
1 *999:Y *138:18 37.3343 
2 *138:18 *138:24 32.61 
3 *138:24 *138:30 40.6829 
4 *138:30 *138:34 16.9057 
5 *138:34 *1000:A2 39.0979 
6 *138:34 *138:57 34.9271 
7 *138:57 *1023:A0 23 
*END

*D_NET *139 0.00979052
*CONN
*I *1051:A0 I *D sky130_fd_sc_hd__mux2_1
*I *1001:B I *D sky130_fd_sc_hd__and2_1
*I *1000:Y O *D sky130_fd_sc_hd__a21oi_1
*CAP
1 *1051:A0 0
2 *1001:B 0.000114377
3 *1000:Y 0.00042018
4 *139:35 0.00108048
5 *139:18 0.00193488
6 *139:8 0.0011602
7 *139:8 *173:14 6.71323e-05
8 *139:8 *204:60 7.21314e-05
9 *139:18 *1124:A1 7.74734e-05
10 *139:18 *140:10 0.000253491
11 *139:18 *215:12 0.00035245
12 *139:18 *239:22 0.000126934
13 *139:35 *153:12 0.000666221
14 *139:35 *178:38 0.000115846
15 *139:35 *179:14 4.66905e-05
16 *139:35 *189:32 0.000271996
17 *139:35 *219:26 0.000152608
18 *139:35 *238:12 0
19 *139:35 *239:159 0
20 *1000:A1 *139:8 1.92253e-05
21 *1000:A2 *139:8 9.41704e-05
22 *22:12 *139:18 0.000453046
23 *22:12 *139:35 9.07853e-05
24 *28:16 *139:8 8.23659e-05
25 *57:72 *139:35 0.00102268
26 *72:14 *139:18 0.000353394
27 *109:22 *139:8 0.000136738
28 *109:22 *139:18 0.000111544
29 *117:26 *139:18 0.000334557
30 *117:26 *139:35 3.70187e-05
31 *133:21 *139:35 0.000141907
*RES
1 *1000:Y *139:8 45.8662 
2 *139:8 *139:18 36.3771 
3 *139:18 *1001:B 24.595 
4 *139:18 *139:35 44.435 
5 *139:35 *1051:A0 38 
*END

*D_NET *140 0.00565
*CONN
*I *1016:B1 I *D sky130_fd_sc_hd__a22o_4
*I *1001:X O *D sky130_fd_sc_hd__and2_1
*CAP
1 *1016:B1 0.000346247
2 *1001:X 0
3 *140:10 0.00116806
4 *140:6 0.000821817
5 *1016:B1 *174:134 0.000277931
6 *140:10 *1103:A0 2.33476e-05
7 *140:10 *214:10 8.08108e-05
8 *140:10 *215:12 0.000458748
9 *140:10 *219:26 0.000342703
10 *140:10 *239:37 0.00100902
11 *140:10 *266:28 0.000102381
12 *1124:S *1016:B1 0.000324883
13 *19:14 *140:10 0.000159354
14 *117:26 *140:10 0.000281198
15 *139:18 *140:10 0.000253491
*RES
1 *1001:X *140:6 38 
2 *140:6 *140:10 42.26 
3 *140:10 *1016:B1 31.2443 
*END

*D_NET *141 0.0262192
*CONN
*I *1055:B1 I *D sky130_fd_sc_hd__o31a_1
*I *1009:B1 I *D sky130_fd_sc_hd__o21a_1
*I *1006:A1 I *D sky130_fd_sc_hd__a31oi_4
*I *1002:X O *D sky130_fd_sc_hd__mux2_2
*CAP
1 *1055:B1 0.000272958
2 *1009:B1 0
3 *1006:A1 0.000548153
4 *1002:X 0.000321825
5 *141:66 0.00110925
6 *141:53 0.000170027
7 *141:34 0.00214691
8 *141:18 0.00302471
9 *141:14 0.00258944
10 *141:10 0.000819049
11 *1006:A1 *145:8 5.58003e-05
12 *1006:A1 *244:16 0.000121615
13 *1055:B1 *1055:A2 0.00153683
14 *141:10 *210:53 0.00014003
15 *141:14 *247:71 0.00063092
16 *141:18 *146:24 0.00105064
17 *141:18 *168:32 9.21397e-05
18 *141:18 *178:18 0.000156396
19 *141:18 *178:38 8.47743e-05
20 *141:18 *247:71 3.66428e-05
21 *141:18 *269:53 2.83725e-05
22 *141:34 *145:47 9.34851e-05
23 *141:34 *151:27 7.51848e-07
24 *141:34 *157:12 4.51815e-05
25 *141:34 *178:18 0.000568872
26 *141:34 *183:30 0.000172071
27 *141:34 *227:53 0.000130614
28 *141:34 *247:18 0.000159018
29 *141:34 *247:71 0.000135153
30 *141:34 *259:71 0.000142571
31 *141:34 *269:18 0.000103474
32 *141:53 *146:8 2.05503e-05
33 *141:53 *177:18 2.05503e-05
34 *141:53 *230:77 8.43956e-05
35 *141:53 *259:71 1.59094e-05
36 *141:66 *168:49 0.00052328
37 *141:66 *261:33 4.3301e-05
38 *141:66 *267:32 0.000420393
39 *959:A3 *141:10 0.000144455
40 *1055:A1 *1055:B1 0.000300817
41 *1144:S *141:10 0.000593218
42 *21:18 *141:34 4.82958e-05
43 *67:32 *141:10 0.000304686
44 *77:49 *141:10 2.98886e-05
45 *78:67 *141:53 5.56356e-05
46 *82:54 *141:34 0.000668921
47 *83:42 *141:34 8.84366e-05
48 *84:14 *1055:B1 0.0011082
49 *84:14 *141:66 4.81913e-05
50 *85:57 *141:14 0.000794054
51 *85:57 *141:66 6.11832e-05
52 *87:26 *141:10 6.56284e-05
53 *89:22 *141:53 8.732e-05
54 *90:42 *141:53 0.000180212
55 *90:100 *141:18 0.000573073
56 *95:69 *141:34 0.000297447
57 *100:63 *141:34 1.73824e-05
58 *108:10 *141:66 0.000315504
59 *108:18 *141:66 3.84556e-05
60 *112:57 *141:34 0.000388209
61 *114:16 *1006:A1 0.000448754
62 *115:8 *1006:A1 0.000197507
63 *115:14 *1006:A1 0.000151036
64 *118:41 *1006:A1 0.000145171
65 *121:73 *141:34 0.000139597
66 *126:20 *1006:A1 0.000813214
67 *128:44 *141:14 6.91354e-05
68 *128:44 *141:66 3.9268e-05
69 *131:32 *1006:A1 0.000390277
*RES
1 *1002:X *141:10 46.8036 
2 *141:10 *141:14 9.64453 
3 *141:14 *141:18 11.3563 
4 *141:18 *141:34 49.5388 
5 *141:34 *1006:A1 39.82 
6 *141:18 *141:53 33.5566 
7 *141:53 *1009:B1 23 
8 *141:14 *141:66 38.648 
9 *141:66 *1055:B1 39.82 
*END

*D_NET *142 0.00426663
*CONN
*I *1004:C1 I *D sky130_fd_sc_hd__a211o_1
*I *1003:X O *D sky130_fd_sc_hd__and4b_1
*CAP
1 *1004:C1 0
2 *1003:X 0.000231472
3 *142:14 0.000500911
4 *142:8 0.000732383
5 *142:8 *200:28 0.00020009
6 *142:14 *1004:A1 5.3304e-05
7 *142:14 *238:70 0.000189414
8 *142:14 *247:44 9.17365e-05
9 *1004:A2 *142:14 0.000296771
10 *1041:S *142:8 0.000293172
11 *71:18 *142:14 8.48502e-06
12 *88:70 *142:14 0.00034107
13 *110:78 *142:8 3.39192e-05
14 *110:105 *142:14 0.00127771
15 *112:41 *142:8 1.61989e-05
*RES
1 *1003:X *142:8 42.7229 
2 *142:8 *142:14 29.935 
3 *142:14 *1004:C1 23 
*END

*D_NET *143 0.00627556
*CONN
*I *1006:A2 I *D sky130_fd_sc_hd__a31oi_4
*I *1004:X O *D sky130_fd_sc_hd__a211o_1
*CAP
1 *1006:A2 0
2 *1004:X 0.000558515
3 *143:16 0.000904581
4 *143:8 0.0014631
5 *143:16 *197:36 0.000192087
6 *143:16 *218:10 0.000300876
7 *60:22 *143:16 0.000137494
8 *73:16 *143:16 0.00135254
9 *101:8 *143:16 0.000562286
10 *101:20 *143:16 0.000166847
11 *110:105 *143:8 0.000637237
*RES
1 *1004:X *143:8 45.2914 
2 *143:8 *143:16 37.3921 
3 *143:16 *1006:A2 23 
*END

*D_NET *144 0.00810989
*CONN
*I *1006:A3 I *D sky130_fd_sc_hd__a31oi_4
*I *1005:X O *D sky130_fd_sc_hd__or3_2
*CAP
1 *1006:A3 8.99618e-05
2 *1005:X 4.99221e-05
3 *144:26 0.000323137
4 *144:18 0.00174003
5 *144:8 0.00155678
6 *1006:A3 *976:A1 0.000449822
7 *144:8 *1191:A 5.3304e-05
8 *144:18 *195:12 5.71993e-05
9 *144:18 *224:12 0.000826086
10 *144:18 *240:10 0
11 *144:18 *250:78 0
12 *144:18 *260:18 0.000223115
13 *144:18 *260:26 0.000114906
14 *144:18 *260:63 0.000220781
15 *144:26 *976:A1 0.00018304
16 *144:26 *244:16 5.13997e-05
17 *976:A2 *144:26 1.21972e-05
18 *988:C *144:18 0.000187708
19 *17:8 *144:18 1.78655e-05
20 *64:12 *144:18 5.58152e-06
21 *76:38 *144:18 0.000924876
22 *89:56 *144:18 2.13834e-05
23 *89:66 *144:26 1.94973e-05
24 *113:84 *144:18 0.000120161
25 *114:16 *1006:A3 0.000449822
26 *115:8 *144:26 0.000312715
27 *121:44 *144:18 9.86025e-05
28 *125:59 *144:26 0
*RES
1 *1005:X *144:8 38.6214 
2 *144:8 *144:18 35.1314 
3 *144:18 *144:26 35.7586 
4 *144:26 *1006:A3 42.9093 
*END

*D_NET *145 0.0248553
*CONN
*I *1017:A I *D sky130_fd_sc_hd__and2_1
*I *1015:A I *D sky130_fd_sc_hd__and3_2
*I *1058:C I *D sky130_fd_sc_hd__and4_1
*I *1043:A I *D sky130_fd_sc_hd__xnor2_2
*I *1006:Y O *D sky130_fd_sc_hd__a31oi_4
*CAP
1 *1017:A 0
2 *1015:A 0.000647055
3 *1058:C 0.000249116
4 *1043:A 0
5 *1006:Y 1.82394e-05
6 *145:94 0.00138448
7 *145:75 0.00137434
8 *145:73 0.00170104
9 *145:57 0.00146471
10 *145:47 0.000537081
11 *145:35 0.000778128
12 *145:27 0.00126818
13 *145:16 0.000744479
14 *145:8 0.00163838
15 *1015:A *146:24 0
16 *1015:A *154:8 0
17 *1015:A *235:74 0.000452727
18 *1058:C *251:69 0.000181805
19 *145:16 *1043:B 0.000940699
20 *145:16 *176:16 0.000896937
21 *145:16 *239:70 0.000150335
22 *145:27 *1182:CLK 5.3304e-05
23 *145:27 *234:65 1.71761e-05
24 *145:27 *235:20 0.000585344
25 *145:27 *235:31 4.89731e-05
26 *145:27 *239:70 7.48073e-05
27 *145:27 *250:68 0.000895608
28 *145:47 *1003:C 4.96675e-06
29 *145:47 *151:27 1.29848e-05
30 *145:47 *156:18 6.17437e-06
31 *145:47 *209:45 7.68979e-05
32 *145:47 *227:53 5.36496e-06
33 *145:47 *258:20 0
34 *145:47 *270:44 0.000113518
35 *145:57 *151:27 1.0092e-05
36 *145:57 *209:45 0
37 *145:57 *244:12 5.77295e-05
38 *145:57 *270:44 9.41704e-05
39 *145:73 *169:47 8.10232e-05
40 *145:73 *171:20 0.000662134
41 *145:73 *173:30 0.000169391
42 *145:73 *192:10 0.000362659
43 *145:73 *228:24 0.000163377
44 *145:73 *230:77 0.000169385
45 *145:73 *232:25 1.83153e-05
46 *145:73 *244:12 0.000273978
47 *145:73 *248:23 9.28078e-06
48 *145:75 *174:67 6.87992e-05
49 *145:75 *264:10 0.000147441
50 *145:75 *264:31 0.000194619
51 *145:94 *234:134 2.33679e-05
52 *145:94 *264:31 0.000430649
53 *959:A1 *1058:C 0.000135037
54 *988:B *145:16 2.93985e-05
55 *1006:A1 *145:8 5.58003e-05
56 *1058:B *1058:C 5.3304e-05
57 *1182:D *145:27 5.52339e-05
58 *21:34 *145:73 0.000494158
59 *35:8 *145:27 1.08287e-05
60 *57:50 *145:35 0.000218709
61 *65:30 *145:27 0.000483374
62 *71:69 *1015:A 0.000124129
63 *77:87 *145:94 0.000521684
64 *77:131 *145:27 0.000653647
65 *81:88 *145:27 5.56279e-05
66 *81:88 *145:35 0.000202747
67 *82:40 *145:35 0.000434129
68 *88:27 *1015:A 0
69 *88:54 *145:73 0.000166289
70 *97:37 *145:94 1.75427e-05
71 *98:72 *1058:C 0.000157011
72 *98:79 *1058:C 4.05745e-05
73 *103:43 *145:73 0.000110706
74 *103:43 *145:75 0.000510743
75 *103:43 *145:94 0.000396502
76 *115:8 *145:8 2.95526e-05
77 *118:24 *145:16 4.40195e-05
78 *118:24 *145:27 3.41998e-06
79 *120:72 *145:73 0.000498353
80 *127:37 *145:16 0
81 *127:37 *145:27 0
82 *141:34 *145:47 9.34851e-05
*RES
1 *1006:Y *145:8 38.6214 
2 *145:8 *145:16 35.01 
3 *145:16 *1043:A 23 
4 *145:8 *145:27 37.2679 
5 *145:27 *145:35 37.8714 
6 *145:35 *145:47 36.38 
7 *145:47 *145:57 46.9471 
8 *145:57 *145:73 46.4593 
9 *145:73 *145:75 7.71607 
10 *145:75 *1058:C 43.4064 
11 *145:75 *145:94 42.8221 
12 *145:94 *1015:A 49.0614 
13 *145:47 *1017:A 23 
*END

*D_NET *146 0.0152907
*CONN
*I *1008:C1 I *D sky130_fd_sc_hd__a211o_1
*I *1007:X O *D sky130_fd_sc_hd__and4b_1
*CAP
1 *1008:C1 0
2 *1007:X 0.000379844
3 *146:34 0.000112491
4 *146:28 0.00248766
5 *146:24 0.0050117
6 *146:8 0.00301638
7 *146:8 *177:18 0.000105049
8 *146:8 *234:148 0.000250283
9 *146:8 *234:163 4.86681e-05
10 *146:8 *247:44 1.05441e-05
11 *146:24 *185:61 1.54551e-05
12 *146:24 *211:18 9.43676e-05
13 *146:24 *226:30 0.000392425
14 *146:24 *228:24 0.000205628
15 *146:24 *230:77 0.0002149
16 *146:24 *247:71 0.0010874
17 *146:24 *261:33 0
18 *146:24 *264:31 5.96247e-05
19 *146:28 *168:51 0
20 *146:28 *207:32 0.000108194
21 *146:34 *153:43 2.08324e-05
22 *146:34 *249:54 3.36312e-06
23 *1015:A *146:24 0
24 *21:34 *146:24 7.45165e-05
25 *49:76 *146:24 6.0109e-05
26 *62:14 *146:8 7.83863e-05
27 *77:35 *146:8 2.99457e-05
28 *83:20 *146:24 0
29 *90:100 *146:24 0.000239976
30 *107:12 *146:24 4.27998e-05
31 *122:29 *146:24 6.90048e-05
32 *141:18 *146:24 0.00105064
33 *141:53 *146:8 2.05503e-05
*RES
1 *1007:X *146:8 43.6032 
2 *146:8 *146:24 47.2037 
3 *146:24 *146:28 46.1129 
4 *146:28 *146:34 31.9057 
5 *146:34 *1008:C1 23 
*END

*D_NET *147 0.0262374
*CONN
*I *1011:A1 I *D sky130_fd_sc_hd__a21oi_4
*I *1008:X O *D sky130_fd_sc_hd__a211o_1
*CAP
1 *1011:A1 0
2 *1008:X 0.00113423
3 *147:28 0.00270009
4 *147:20 0.00317066
5 *147:16 0.000614571
6 *147:10 0.00063431
7 *147:6 0.00162454
8 *147:6 *152:42 5.27313e-06
9 *147:10 *152:34 0.00174691
10 *147:10 *158:10 0.000453952
11 *147:10 *168:55 0.00122337
12 *147:10 *189:32 0.000210277
13 *147:10 *211:26 6.65598e-06
14 *147:16 *187:12 6.17437e-06
15 *147:20 *152:24 0.00231624
16 *147:20 *168:55 0.000410416
17 *147:28 *1101:B 0.000100381
18 *147:28 *148:10 0.000218982
19 *147:28 *154:30 0.000125799
20 *147:28 *166:10 0.000132567
21 *147:28 *182:24 0.00213322
22 *147:28 *183:22 0.000412041
23 *147:28 *187:30 5.77695e-05
24 *147:28 *205:49 0.000110155
25 *147:28 *221:43 2.55899e-05
26 *147:28 *269:18 3.62864e-05
27 *1:17 *147:10 2.11157e-05
28 *3:21 *147:28 0.00178439
29 *27:16 *147:28 0.00116754
30 *67:10 *147:20 0.00310628
31 *70:12 *147:6 0.000127052
32 *80:36 *147:20 0.000420584
*RES
1 *1008:X *147:6 37.9143 
2 *147:6 *147:10 45.0771 
3 *147:10 *147:16 32.0507 
4 *147:16 *147:20 47.4089 
5 *147:20 *147:28 34.9526 
6 *147:28 *1011:A1 23 
*END

*D_NET *148 0.00843968
*CONN
*I *1011:A2 I *D sky130_fd_sc_hd__a21oi_4
*I *1009:X O *D sky130_fd_sc_hd__o21a_1
*CAP
1 *1011:A2 2.58652e-05
2 *1009:X 0.000317972
3 *148:10 0.00194546
4 *148:8 0.00223756
5 *1011:A2 *191:26 5.12254e-05
6 *148:8 *192:10 0.000307963
7 *148:10 *155:34 2.56418e-05
8 *148:10 *155:61 0.000107974
9 *148:10 *166:10 9.99433e-06
10 *148:10 *171:36 8.0036e-05
11 *148:10 *201:52 4.09559e-05
12 *148:10 *258:24 0.0001746
13 *148:10 *258:28 0.000466316
14 *148:10 *259:34 0.00038331
15 *148:10 *269:18 4.71841e-05
16 *148:10 *270:44 0.000131416
17 *29:38 *148:10 0.000652658
18 *31:26 *148:10 4.10221e-05
19 *31:34 *148:10 0.000176928
20 *49:45 *148:10 0.000727154
21 *49:61 *148:8 5.56356e-05
22 *53:14 *1011:A2 0.00010018
23 *93:43 *148:10 0.000102576
24 *103:43 *148:8 1.10658e-05
25 *147:28 *148:10 0.000218982
*RES
1 *1009:X *148:8 42.4329 
2 *148:8 *148:10 38.8807 
3 *148:10 *1011:A2 39.0979 
*END

*D_NET *149 0.0106841
*CONN
*I *1011:B1 I *D sky130_fd_sc_hd__a21oi_4
*I *1010:X O *D sky130_fd_sc_hd__and2b_1
*CAP
1 *1011:B1 0
2 *1010:X 0.00113796
3 *149:34 0.000462332
4 *149:28 0.000877073
5 *149:18 0.0014635
6 *149:6 0.00218672
7 *149:18 *1052:A1 0.000567859
8 *149:18 *248:41 0.000455492
9 *149:18 *257:49 0.000568311
10 *149:28 *957:A 5.12055e-06
11 *149:28 *157:28 9.98726e-05
12 *149:28 *234:31 4.67236e-05
13 *149:34 *150:10 0.000142483
14 *149:34 *150:44 8.00403e-05
15 *149:34 *247:18 2.40409e-05
16 *149:34 *258:28 0
17 *35:14 *149:28 0.000104415
18 *49:110 *149:34 0.000153368
19 *56:14 *149:18 8.90749e-05
20 *59:10 *149:28 0.000186041
21 *59:18 *149:28 0.000253555
22 *60:14 *149:28 0.000193625
23 *78:36 *149:18 6.85726e-05
24 *83:48 *149:6 0.00140262
25 *95:139 *149:28 7.11824e-06
26 *118:14 *149:28 0.000108161
*RES
1 *1010:X *149:6 38.8671 
2 *149:6 *149:18 48.5186 
3 *149:18 *149:28 40.7714 
4 *149:28 *149:34 38.2443 
5 *149:34 *1011:B1 23 
*END

*D_NET *150 0.04023
*CONN
*I *1029:A2 I *D sky130_fd_sc_hd__a21boi_4
*I *1058:D I *D sky130_fd_sc_hd__and4_1
*I *1042:A3 I *D sky130_fd_sc_hd__a31o_1
*I *1012:A I *D sky130_fd_sc_hd__buf_1
*I *1028:B1 I *D sky130_fd_sc_hd__a211o_1
*I *1011:Y O *D sky130_fd_sc_hd__a21oi_4
*CAP
1 *1029:A2 0
2 *1058:D 0
3 *1042:A3 0.000173898
4 *1012:A 0
5 *1028:B1 0.000591801
6 *1011:Y 0.0003255
7 *150:83 0.0004061
8 *150:75 0.000958881
9 *150:60 0.00143842
10 *150:58 0.000926297
11 *150:50 0.000566661
12 *150:46 0.00102997
13 *150:44 0.00304601
14 *150:22 0.00147778
15 *150:14 0.00130182
16 *150:10 0.00310948
17 *1042:A3 *188:14 6.23934e-05
18 *1042:A3 *256:18 9.64943e-05
19 *150:10 *191:26 5.67058e-05
20 *150:10 *258:28 6.60834e-05
21 *150:22 *151:8 0.000587996
22 *150:22 *157:28 9.19591e-05
23 *150:22 *209:10 0.000671267
24 *150:22 *220:30 7.73846e-05
25 *150:22 *255:12 0.000116001
26 *150:44 *184:22 0.00391384
27 *150:44 *216:79 3.76069e-05
28 *150:46 *182:39 0.0002461
29 *150:46 *216:81 0.00371886
30 *150:50 *1029:A1 0.000313249
31 *150:58 *1029:A1 9.5877e-05
32 *150:58 *224:12 0.000196719
33 *150:60 *188:14 0.000882197
34 *150:75 *155:94 5.99729e-05
35 *150:75 *223:10 0.000509202
36 *150:83 *1095:A2 1.69068e-05
37 *150:83 *197:6 0.000359447
38 *150:83 *208:36 0
39 *150:83 *251:69 0.000143259
40 *150:83 *256:22 0
41 seg[4] *150:44 0.000205754
42 *26:28 *150:44 0.000340183
43 *28:30 *150:46 0.00242121
44 *31:14 *150:10 5.43589e-05
45 *31:14 *150:44 0.000213963
46 *48:32 *150:44 0.000184263
47 *49:39 *150:14 0.00153638
48 *49:39 *150:22 5.58003e-05
49 *49:110 *150:14 0.000132513
50 *78:84 *150:83 3.83198e-05
51 *82:79 *150:22 6.98816e-05
52 *82:100 *150:22 0.000509278
53 *83:113 *150:60 0.000357205
54 *84:32 *150:75 0.000129184
55 *88:64 *1042:A3 7.65063e-05
56 *97:60 *150:60 9.91548e-05
57 *98:60 *1028:B1 2.11119e-05
58 *98:79 *150:83 4.78497e-05
59 *98:104 *150:83 0.000107586
60 *105:10 *150:58 0.000403443
61 *106:111 *1028:B1 2.93547e-05
62 *118:24 *150:44 0.000915988
63 *119:12 *1042:A3 0.00018197
64 *119:12 *150:60 0.00105464
65 *120:39 *1028:B1 0.00027539
66 *120:105 *1042:A3 0.000306724
67 *122:56 *150:83 0.000269337
68 *131:44 *150:44 0.000202254
69 *134:37 *150:14 0.00177721
70 *134:37 *150:22 5.82853e-05
71 *135:10 *150:46 0.000260253
72 *149:34 *150:10 0.000142483
73 *149:34 *150:44 8.00403e-05
*RES
1 *1011:Y *150:10 43.6964 
2 *150:10 *150:14 34.6786 
3 *150:14 *150:22 49.43 
4 *150:22 *1028:B1 31.1407 
5 *150:14 *1012:A 23 
6 *150:10 *150:44 27.4374 
7 *150:44 *150:46 47.5082 
8 *150:46 *150:50 22.2914 
9 *150:50 *150:58 36.525 
10 *150:58 *150:60 20.155 
11 *150:60 *1042:A3 27.9093 
12 *150:60 *150:75 37.7679 
13 *150:75 *150:83 39.28 
14 *150:83 *1058:D 23 
15 *150:50 *1029:A2 23 
*END

*D_NET *151 0.0111709
*CONN
*I *1017:B I *D sky130_fd_sc_hd__and2_1
*I *1013:A I *D sky130_fd_sc_hd__buf_1
*I *1012:X O *D sky130_fd_sc_hd__buf_1
*CAP
1 *1017:B 0
2 *1013:A 0.000292061
3 *1012:X 0.000374322
4 *151:27 0.000686937
5 *151:23 0.0015699
6 *151:10 0.00117502
7 *151:8 0.000374322
8 *1013:A *152:18 4.96207e-05
9 *1013:A *155:32 0.000135037
10 *1013:A *209:18 0.000600905
11 *151:8 *220:30 1.36826e-05
12 *151:23 *155:32 0.00154654
13 *151:23 *209:18 9.5877e-05
14 *151:27 *157:18 0.000935561
15 *151:27 *209:45 0.000129053
16 *151:27 *244:12 1.42186e-05
17 *33:16 *151:23 0.000307875
18 *36:6 *151:23 3.75171e-05
19 *66:20 *1013:A 2.31591e-05
20 *82:54 *151:27 0.00024109
21 *82:79 *151:8 0.000639476
22 *96:22 *151:23 0.000886622
23 *100:63 *151:27 0.000254811
24 *138:24 *151:27 0.000175495
25 *141:34 *151:27 7.51848e-07
26 *145:47 *151:27 1.29848e-05
27 *145:57 *151:27 1.0092e-05
28 *150:22 *151:8 0.000587996
*RES
1 *1012:X *151:8 47.3007 
2 *151:8 *151:10 15 
3 *151:10 *1013:A 30.3121 
4 *151:10 *151:23 38.9664 
5 *151:23 *151:27 29.2307 
6 *151:27 *1017:B 23 
*END

*D_NET *152 0.023925
*CONN
*I *1015:B I *D sky130_fd_sc_hd__and3_2
*I *1013:X O *D sky130_fd_sc_hd__buf_1
*CAP
1 *1015:B 0
2 *1013:X 0.000660193
3 *152:46 0.00128458
4 *152:42 0.00207376
5 *152:34 0.00118534
6 *152:30 0.000497566
7 *152:24 0.000545817
8 *152:22 0.00147608
9 *152:18 0.00169186
10 *152:18 *209:18 0.000185536
11 *152:18 *211:34 1.12349e-05
12 *152:22 *211:34 0.00119424
13 *152:24 *168:55 0.00280055
14 *152:24 *189:32 0.000383939
15 *152:34 *211:18 0.000286219
16 *152:42 *1142:B 0.000542819
17 *152:42 *153:43 0
18 *152:42 *249:48 0.000498137
19 *152:42 *249:54 0.00013553
20 *152:46 *1015:C 0.00026467
21 *970:A *152:18 0.00010904
22 *1008:A2 *152:46 9.8971e-06
23 *1013:A *152:18 4.96207e-05
24 *1138:B *152:18 0.000180218
25 *1:17 *152:42 8.25867e-05
26 *67:10 *152:24 0.000248381
27 *67:22 *152:30 0.00018197
28 *67:22 *152:34 0.000577276
29 *70:12 *152:42 0.000312986
30 *70:32 *152:34 0.000210277
31 *80:36 *152:24 0.000100781
32 *81:38 *152:42 1.59071e-05
33 *90:106 *152:46 0.00179357
34 *95:30 *152:18 0.000186268
35 *109:10 *152:18 6.99175e-05
36 *109:10 *152:22 9.77922e-06
37 *147:6 *152:42 5.27313e-06
38 *147:10 *152:34 0.00174691
39 *147:20 *152:24 0.00231624
*RES
1 *1013:X *152:18 36.1329 
2 *152:18 *152:22 29.9143 
3 *152:22 *152:24 35.7114 
4 *152:24 *152:30 32.0507 
5 *152:30 *152:34 37.33 
6 *152:34 *152:42 48.2493 
7 *152:42 *152:46 28.275 
8 *152:46 *1015:B 23 
*END

*D_NET *153 0.0197611
*CONN
*I *1015:C I *D sky130_fd_sc_hd__and3_2
*I *1019:B I *D sky130_fd_sc_hd__nand2_1
*I *1014:Y O *D sky130_fd_sc_hd__nor2_1
*CAP
1 *1015:C 0.000501672
2 *1019:B 2.36519e-05
3 *1014:Y 0.000309018
4 *153:43 0.00173275
5 *153:26 0.000742634
6 *153:20 0.00137181
7 *153:12 0.00131712
8 *153:6 0.00220439
9 *1015:C *207:32 0.000188542
10 *1019:B *191:34 5.58003e-05
11 *1019:B *220:6 2.64616e-05
12 *153:6 *271:43 0.000182353
13 *153:12 *190:12 2.08572e-05
14 *153:12 *239:159 0
15 *153:12 *266:51 0.000247293
16 *153:20 *158:14 0.000261206
17 *153:20 *239:10 0.000486242
18 *153:20 *239:159 0.000747085
19 *153:26 *1130:B 1.13812e-05
20 *153:26 *204:60 0
21 *153:26 *205:61 0.000409494
22 *153:26 *233:51 0.0003631
23 *153:26 *233:53 0.00026611
24 *153:26 *233:59 0.000416013
25 *153:26 *249:33 5.92599e-05
26 *153:43 *271:43 0.000585355
27 *1008:A2 *1015:C 0.00210811
28 *22:12 *153:12 7.58027e-05
29 *28:16 *153:26 0.00012017
30 *38:14 *153:26 8.57485e-05
31 *40:12 *153:26 0.000209975
32 *70:12 *153:43 6.10551e-06
33 *72:14 *153:12 0.000446228
34 *72:14 *153:20 1.02387e-05
35 *82:100 *153:26 0
36 *90:106 *1015:C 0.000937597
37 *109:10 *153:26 0.000440577
38 *109:22 *153:26 0.000557109
39 *109:30 *153:20 0.0011921
40 *109:30 *153:26 8.9985e-05
41 *130:39 *153:43 0
42 *139:35 *153:12 0.000666221
43 *146:34 *153:43 2.08324e-05
44 *152:42 *153:43 0
45 *152:46 *1015:C 0.00026467
*RES
1 *1014:Y *153:6 26.9564 
2 *153:6 *153:12 48.1043 
3 *153:12 *153:20 49.6993 
4 *153:20 *153:26 38.1793 
5 *153:26 *1019:B 38.6214 
6 *153:6 *153:43 49.8236 
7 *153:43 *1015:C 48.8721 
*END

*D_NET *154 0.0243866
*CONN
*I *1052:B1 I *D sky130_fd_sc_hd__a32o_4
*I *1016:B2 I *D sky130_fd_sc_hd__a22o_4
*I *1015:X O *D sky130_fd_sc_hd__and3_2
*CAP
1 *1052:B1 0.000710558
2 *1016:B2 0
3 *1015:X 0.000630185
4 *154:30 0.00249353
5 *154:18 0.00735922
6 *154:8 0.00478532
7 *1052:B1 *184:22 0.000342691
8 *1052:B1 *187:30 0.00123061
9 *1052:B1 *198:16 4.89546e-05
10 *154:8 *210:53 3.12448e-05
11 *154:8 *235:74 8.20834e-05
12 *154:8 *236:194 2.83496e-05
13 *154:18 *200:28 4.62763e-05
14 *154:18 *216:64 0.000395166
15 *154:18 *266:51 2.37336e-05
16 *154:30 *163:18 0.00027057
17 *154:30 *184:22 0.000102348
18 *154:30 *187:30 0.000867724
19 *1015:A *154:8 0
20 *26:28 *154:30 0.000381359
21 *26:34 *154:30 6.87392e-05
22 *27:16 *154:30 0.000150556
23 *34:26 *154:18 1.73694e-05
24 *83:20 *154:18 0
25 *88:27 *154:8 0
26 *94:18 *154:30 0.000174387
27 *100:32 *154:18 0.00149174
28 *110:41 *154:18 0.000387058
29 *113:36 *154:18 3.28835e-05
30 *113:55 *154:18 0.00201425
31 *116:78 *154:18 4.13662e-05
32 *131:44 *154:30 9.86551e-06
33 *134:31 *154:30 4.27083e-05
34 *147:28 *154:30 0.000125799
*RES
1 *1015:X *154:8 47.4768 
2 *154:8 *154:18 34.4365 
3 *154:18 *154:30 34.7449 
4 *154:30 *1016:B2 23 
5 *154:18 *1052:B1 49.1764 
*END

*D_NET *155 0.0400959
*CONN
*I *1122:A0 I *D sky130_fd_sc_hd__mux2_1
*I *1036:A I *D sky130_fd_sc_hd__nor2_2
*I *1079:A1 I *D sky130_fd_sc_hd__a211o_1
*I *1073:A I *D sky130_fd_sc_hd__inv_2
*I *1146:A1 I *D sky130_fd_sc_hd__mux2_1
*I *1087:A1 I *D sky130_fd_sc_hd__mux2_1
*I *1070:A1 I *D sky130_fd_sc_hd__a21oi_2
*I *1063:A I *D sky130_fd_sc_hd__nor2_1
*I *1109:A1 I *D sky130_fd_sc_hd__mux2_1
*I *1016:X O *D sky130_fd_sc_hd__a22o_4
*CAP
1 *1122:A0 0.000106125
2 *1036:A 3.80122e-05
3 *1079:A1 5.45688e-05
4 *1073:A 0.00039882
5 *1146:A1 0
6 *1087:A1 0
7 *1070:A1 0
8 *1063:A 4.64003e-05
9 *1109:A1 0.00011508
10 *1016:X 0.000792542
11 *155:143 0.00137511
12 *155:133 0.00169776
13 *155:126 0.000832491
14 *155:111 0.000737416
15 *155:98 0.000943002
16 *155:94 0.00125817
17 *155:82 0.00263414
18 *155:80 0.00118238
19 *155:63 0.000479711
20 *155:61 0.00138492
21 *155:34 0.00167185
22 *155:32 0.000645995
23 *155:26 0.00151725
24 *155:22 0.000817163
25 *155:14 0.0011985
26 *1036:A *174:124 5.3304e-05
27 *1063:A *1063:B 2.93104e-06
28 *1063:A *172:22 1.34995e-05
29 *1063:A *206:57 3.75407e-05
30 *1073:A *1023:A1 0.000109976
31 *1073:A *191:142 1.32308e-05
32 *1073:A *208:106 8.25041e-06
33 *1079:A1 *208:106 1.34513e-05
34 *1122:A0 *191:34 0.000138607
35 *155:22 *191:34 0.000354651
36 *155:34 *269:18 0.000143615
37 *155:61 *228:24 0.000205375
38 *155:61 *230:77 0.00018882
39 *155:80 *172:22 1.2818e-05
40 *155:80 *173:38 0.000273159
41 *155:80 *206:57 0.000860899
42 *155:80 *227:71 8.813e-05
43 *155:80 *237:43 2.22168e-05
44 *155:82 *174:6 0.000144892
45 *155:82 *237:43 6.05038e-05
46 *155:82 *237:51 0.000398082
47 *155:94 *159:18 0.000224769
48 *155:94 *196:16 6.85548e-05
49 *155:94 *196:22 0.000307907
50 *155:94 *267:14 0.000214162
51 *155:98 *1097:A1 8.57485e-05
52 *155:98 *257:18 0.000349201
53 *155:111 *1089:A1 0.000234542
54 *155:111 *257:18 0.000446329
55 *155:126 *1069:A 0.000134853
56 *155:126 *174:6 0.000193254
57 *155:126 *193:8 0.000110341
58 *155:126 *239:109 5.83322e-05
59 *155:133 *167:12 0.00015388
60 *155:133 *255:63 8.75678e-05
61 *155:143 *162:22 0.000397046
62 *155:143 *167:12 5.57265e-05
63 *155:143 *208:106 2.30886e-05
64 *155:143 *212:14 0.000138005
65 *938:A *155:14 3.27668e-05
66 *1013:A *155:32 0.000135037
67 *1124:S *155:14 0.000781816
68 *1146:S *155:126 0.000124814
69 *29:18 *155:133 0.000128273
70 *29:38 *155:61 0.000239281
71 *33:16 *155:32 0.000136743
72 *40:22 *155:61 8.79977e-05
73 *43:26 *155:61 0.00108887
74 *49:18 *155:133 0
75 *49:35 *155:26 0.000202251
76 *49:45 *155:34 0.000206388
77 *49:51 *155:34 8.03977e-05
78 *49:51 *155:61 0.000526292
79 *53:20 *155:22 9.32078e-05
80 *57:87 *155:26 0.000371208
81 *57:87 *155:133 0.000626859
82 *57:103 *155:14 0.000167573
83 *57:103 *155:22 0.000131383
84 *58:30 *155:111 0.000926607
85 *63:28 *155:61 0.000172841
86 *65:8 *155:111 0.000667452
87 *66:20 *155:32 0.000825272
88 *71:43 *155:61 1.58785e-05
89 *73:8 *155:126 5.3304e-05
90 *77:35 *1063:A 1.3523e-05
91 *77:35 *155:80 0.000281259
92 *78:84 *155:98 2.64114e-05
93 *78:97 *155:98 0.000198514
94 *78:97 *155:111 0.000584851
95 *80:36 *155:94 0.000145754
96 *82:79 *155:26 3.14886e-05
97 *83:30 *155:61 0.000315825
98 *84:22 *155:111 0
99 *84:32 *155:94 6.29993e-05
100 *84:38 *155:94 0.000297545
101 *84:81 *155:61 0.000286772
102 *84:89 *155:22 3.24541e-05
103 *85:8 *155:26 0.000104025
104 *85:8 *155:133 3.32253e-05
105 *93:43 *155:61 4.30894e-05
106 *95:45 *155:32 0.000363992
107 *98:60 *1079:A1 0
108 *98:60 *155:143 3.65917e-05
109 *102:16 *155:143 6.51429e-05
110 *106:95 *155:143 0.000291738
111 *112:18 *155:126 9.89901e-05
112 *112:91 *155:94 9.23705e-06
113 *119:56 *155:61 8.99259e-06
114 *120:47 *155:34 1.55203e-05
115 *120:72 *155:61 0.00017414
116 *122:62 *155:94 0.000341693
117 *124:36 *1109:A1 0.000137651
118 *136:24 *155:143 4.99535e-05
119 *137:8 *155:133 0.000127185
120 *148:10 *155:34 2.56418e-05
121 *148:10 *155:61 0.000107974
122 *150:75 *155:94 5.99729e-05
123 *151:23 *155:32 0.00154654
*RES
1 *1016:X *155:14 35.3871 
2 *155:14 *155:22 36.9186 
3 *155:22 *155:26 21.4836 
4 *155:26 *155:32 48.7257 
5 *155:32 *155:34 4.01857 
6 *155:34 *1109:A1 39.5743 
7 *155:34 *155:61 44.2172 
8 *155:61 *155:63 15 
9 *155:63 *1063:A 24.1186 
10 *155:63 *155:80 41.2271 
11 *155:80 *155:82 9.67357 
12 *155:82 *155:94 48.9536 
13 *155:94 *155:98 20.075 
14 *155:98 *1070:A1 38 
15 *155:98 *155:111 36.605 
16 *155:111 *1087:A1 23 
17 *155:82 *155:126 41.8486 
18 *155:126 *1146:A1 23 
19 *155:26 *155:133 14.5829 
20 *155:133 *155:143 30.805 
21 *155:143 *1073:A 29.235 
22 *155:143 *1079:A1 24.1652 
23 *155:133 *1036:A 38.6214 
24 *155:22 *1122:A0 24.5743 
*END

*D_NET *156 0.00270663
*CONN
*I *1018:A I *D sky130_fd_sc_hd__buf_1
*I *1017:X O *D sky130_fd_sc_hd__and2_1
*CAP
1 *1018:A 0.000201039
2 *1017:X 0.000393899
3 *156:18 0.000594937
4 *1018:A *1003:C 0.000476238
5 *1018:A *1117:D_N 5.3304e-05
6 *1018:A *218:22 0.000268578
7 *156:18 *1003:C 0.000102025
8 *156:18 *198:16 9.50737e-05
9 *156:18 *218:22 0.000352567
10 *156:18 *234:16 5.64582e-05
11 *1117:A *156:18 5.99567e-06
12 *21:18 *156:18 3.33006e-05
13 *24:24 *156:18 6.70361e-05
14 *145:47 *156:18 6.17437e-06
*RES
1 *1017:X *156:18 46.9279 
2 *156:18 *1018:A 43.8829 
*END

*D_NET *157 0.0165922
*CONN
*I *1019:A I *D sky130_fd_sc_hd__nand2_1
*I *1018:X O *D sky130_fd_sc_hd__buf_1
*CAP
1 *1019:A 0
2 *1018:X 0.00101391
3 *157:32 0.000541225
4 *157:28 0.00127228
5 *157:18 0.00155194
6 *157:12 0.00183479
7 *157:12 *236:69 4.67233e-05
8 *157:12 *236:134 0.000683132
9 *157:12 *257:37 4.51797e-05
10 *157:12 *269:26 0.000276427
11 *157:18 *244:12 0.00108522
12 *157:18 *247:18 9.19266e-05
13 *157:28 *184:22 0.000240073
14 *157:28 *220:30 6.50401e-05
15 *157:28 *253:14 0.000226896
16 *157:28 *255:12 2.68607e-05
17 *157:32 *191:34 0.00177148
18 *157:32 *220:6 0.000678086
19 *157:32 *253:14 0.000135037
20 *21:18 *157:12 0.000156626
21 *41:22 *157:12 4.30894e-05
22 *57:103 *157:32 0.000355649
23 *59:10 *157:28 0.00037625
24 *60:14 *157:28 0.00195842
25 *81:72 *157:12 0.000267836
26 *81:88 *157:12 0.000225409
27 *82:54 *157:18 0.000342561
28 *84:67 *157:12 5.99068e-05
29 *100:63 *157:12 3.77971e-05
30 *116:96 *157:28 9.90107e-06
31 *141:34 *157:12 4.51815e-05
32 *149:28 *157:28 9.98726e-05
33 *150:22 *157:28 9.19591e-05
34 *151:27 *157:18 0.000935561
*RES
1 *1018:X *157:12 48.9617 
2 *157:12 *157:18 41.9846 
3 *157:18 *157:28 39.7329 
4 *157:28 *157:32 34.6786 
5 *157:32 *1019:A 23 
*END

*D_NET *158 0.0237551
*CONN
*I *1035:A1_N I *D sky130_fd_sc_hd__a2bb2o_4
*I *1019:Y O *D sky130_fd_sc_hd__nand2_1
*CAP
1 *1035:A1_N 0
2 *1019:Y 0.000700032
3 *158:26 0.00196616
4 *158:14 0.00376807
5 *158:12 0.00180191
6 *158:10 0.000537539
7 *158:8 0.00123757
8 *158:8 *191:34 0.000574756
9 *158:10 *168:55 1.52259e-05
10 *158:10 *173:30 2.24048e-05
11 *158:10 *187:16 0.00268053
12 *158:10 *211:26 0.00113689
13 *158:10 *229:16 0.00199116
14 *158:14 *196:41 0.00176815
15 *158:14 *198:54 1.358e-05
16 *158:14 *222:8 0.000458335
17 *158:14 *251:34 0.000573249
18 *158:26 *168:32 9.45658e-05
19 *158:26 *178:38 0.000465546
20 *158:26 *178:67 1.20202e-05
21 *158:26 *198:28 7.9676e-05
22 *158:26 *234:112 8.70684e-05
23 *158:26 *237:51 1.26599e-05
24 *158:26 *242:24 0.000127063
25 *158:26 *245:14 0.000322826
26 *43:32 *158:14 0.000266207
27 *67:22 *158:14 5.3304e-05
28 *70:32 *158:10 0.000418211
29 *99:43 *158:26 2.26497e-05
30 *100:32 *158:26 5.96737e-06
31 *116:60 *158:26 0.000585453
32 *116:78 *158:26 0.000440921
33 *123:22 *158:14 0.000561415
34 *129:26 *158:26 0.000238797
35 *147:10 *158:10 0.000453952
36 *153:20 *158:14 0.000261206
*RES
1 *1019:Y *158:8 47.6736 
2 *158:8 *158:10 40.6414 
3 *158:10 *158:12 15 
4 *158:12 *158:14 42.0707 
5 *158:14 *158:26 40.853 
6 *158:26 *1035:A1_N 38 
*END

*D_NET *159 0.00614307
*CONN
*I *1022:B1 I *D sky130_fd_sc_hd__a2bb2o_2
*I *1020:Y O *D sky130_fd_sc_hd__nand2_1
*CAP
1 *1022:B1 0
2 *1020:Y 0.000376937
3 *159:18 0.000880668
4 *159:8 0.0012576
5 *159:8 *1098:B1 0.00042742
6 *159:18 *1095:A2 0.000142173
7 *159:18 *196:54 4.05745e-05
8 *159:18 *201:72 1.83371e-05
9 *159:18 *222:30 1.46462e-05
10 *159:18 *223:10 0.000238714
11 *159:18 *225:10 0.000298266
12 *159:18 *267:14 4.45541e-06
13 *953:B1 *159:18 0.000105347
14 *84:22 *159:18 0.000351824
15 *84:26 *159:18 5.93338e-05
16 *84:32 *159:18 0.00030215
17 *92:10 *159:18 2.44078e-05
18 *95:103 *159:18 4.2351e-05
19 *110:68 *159:18 0.00119499
20 *120:76 *159:18 0.000138103
21 *155:94 *159:18 0.000224769
*RES
1 *1020:Y *159:8 42.9093 
2 *159:8 *159:18 39.1321 
3 *159:18 *1022:B1 23 
*END

*D_NET *160 0.0107442
*CONN
*I *1022:B2 I *D sky130_fd_sc_hd__a2bb2o_2
*I *1021:Y O *D sky130_fd_sc_hd__a21oi_1
*CAP
1 *1022:B2 0
2 *1021:Y 0.00122119
3 *160:18 0.00175917
4 *160:6 0.00298035
5 *160:6 *233:147 0.00014196
6 *160:18 *222:30 0.00168411
7 *160:18 *233:176 5.20619e-06
8 *160:18 *236:156 0.000106927
9 *160:18 *236:173 0.000391213
10 *160:18 *251:61 2.55744e-05
11 *160:18 *261:14 2.26406e-05
12 *160:18 *261:24 0.000612807
13 *1184:RESET_B *160:6 0.000409021
14 *67:32 *160:18 0.00025477
15 *81:28 *160:18 0.000125479
16 *83:130 *160:18 0.000272615
17 *92:10 *160:18 2.26406e-05
18 *102:16 *160:18 2.05503e-05
19 *109:100 *160:6 0.000294953
20 *110:53 *160:18 0.000143616
21 *120:72 *160:18 0.000249366
*RES
1 *1021:Y *160:6 44.1079 
2 *160:6 *160:18 36.8501 
3 *160:18 *1022:B2 38 
*END

*D_NET *161 0.022427
*CONN
*I *1049:A I *D sky130_fd_sc_hd__inv_2
*I *1038:A I *D sky130_fd_sc_hd__or2_1
*I *1023:A1 I *D sky130_fd_sc_hd__mux2_1
*I *1030:A I *D sky130_fd_sc_hd__xnor2_2
*I *1022:X O *D sky130_fd_sc_hd__a2bb2o_2
*CAP
1 *1049:A 0.000109327
2 *1038:A 0
3 *1023:A1 0.000585864
4 *1030:A 8.2982e-05
5 *1022:X 0.000248089
6 *161:76 0.000224281
7 *161:68 0.000483888
8 *161:42 0.00225075
9 *161:32 0.00359973
10 *161:24 0.00292523
11 *161:12 0.00222941
12 *161:10 0.000248089
13 *1023:A1 *162:14 7.34798e-05
14 *1023:A1 *208:106 3.5471e-05
15 *1023:A1 *210:14 0.000177899
16 *1023:A1 *228:24 2.8314e-06
17 *1023:A1 *239:8 3.7122e-06
18 *1030:A *215:14 0.000103405
19 *1049:A *256:18 4.81089e-05
20 *161:10 *170:31 0.000175903
21 *161:10 *251:61 3.64467e-05
22 *161:24 *264:10 5.56356e-05
23 *161:32 *185:36 3.7437e-05
24 *161:32 *191:142 8.42414e-06
25 *161:32 *203:10 0.000457898
26 *161:32 *205:10 1.44691e-05
27 *161:32 *207:46 0.000158264
28 *161:32 *210:14 0.000192463
29 *161:32 *210:26 7.57281e-06
30 *161:32 *228:24 0.000449122
31 *161:42 *169:16 0
32 *161:42 *174:134 1.24007e-05
33 *161:42 *205:22 0.00013704
34 *161:42 *213:10 0.000389087
35 *161:42 *228:24 1.88141e-05
36 *161:42 *230:26 9.07421e-05
37 *161:42 *239:56 3.71947e-05
38 *161:76 *1032:A1 0.000199478
39 *161:76 *170:31 5.43589e-05
40 *161:76 *173:38 4.36547e-05
41 *161:76 *251:16 5.5792e-05
42 *161:76 *257:10 1.50312e-05
43 *953:B1 *161:76 3.17711e-05
44 *1031:B *1049:A 6.61191e-05
45 *1073:A *1023:A1 0.000109976
46 *22:18 *161:24 0.00161502
47 *27:16 *161:42 0.000445944
48 *45:8 *161:42 0
49 *53:20 *161:42 0.000733104
50 *69:14 *161:24 0.000220592
51 *80:14 *161:42 2.05503e-05
52 *90:70 *161:42 0.000322199
53 *92:10 *161:10 9.28078e-06
54 *95:12 *161:32 8.13038e-05
55 *99:47 *1049:A 8.76309e-05
56 *99:47 *161:24 0.00046391
57 *99:47 *161:68 0.000209137
58 *103:43 *161:10 0.000102363
59 *104:16 *1023:A1 3.94619e-05
60 *104:16 *161:42 0.000154268
61 *106:80 *161:32 0.000281226
62 *106:111 *161:42 1.69502e-05
63 *120:88 *1049:A 0.000115715
64 *127:53 *161:76 5.3304e-05
65 *130:10 *161:42 0.000199478
66 *130:35 *161:42 2.05503e-05
67 *130:39 *161:32 0.000518189
68 *133:6 *161:24 0.000353325
69 *138:57 *1023:A1 7.58527e-05
*RES
1 *1022:X *161:10 41.6043 
2 *161:10 *161:12 15 
3 *161:12 *161:24 46.9207 
4 *161:24 *161:32 32.2148 
5 *161:32 *161:42 42.1432 
6 *161:42 *1030:A 40.0507 
7 *161:32 *1023:A1 48.9889 
8 *161:12 *161:68 2.52714 
9 *161:68 *161:76 34.2879 
10 *161:76 *1038:A 23 
11 *161:68 *1049:A 26.1693 
*END

*D_NET *162 0.00760784
*CONN
*I *1026:A0 I *D sky130_fd_sc_hd__mux2_1
*I *1023:X O *D sky130_fd_sc_hd__mux2_1
*CAP
1 *1026:A0 0
2 *1023:X 0.000390777
3 *162:38 0.000659071
4 *162:22 0.0019077
5 *162:14 0.00163941
6 *162:14 *265:10 7.57281e-06
7 *162:22 *167:12 8.73763e-05
8 *162:22 *258:10 0.000263538
9 *162:38 *208:106 0.000282986
10 *162:38 *210:26 0.000227452
11 *162:38 *236:39 0.000140931
12 *1023:A1 *162:14 7.34798e-05
13 *1183:RESET_B *162:14 0
14 *32:52 *162:38 9.60689e-05
15 *37:10 *162:22 0.000199803
16 *82:100 *162:22 0.00032219
17 *90:60 *162:38 0.000230271
18 *98:42 *162:38 0.000106368
19 *98:60 *162:38 3.7122e-06
20 *99:6 *162:38 0.000483487
21 *138:57 *162:14 8.85959e-05
22 *155:143 *162:22 0.000397046
*RES
1 *1023:X *162:14 44.3593 
2 *162:14 *162:22 48.3114 
3 *162:22 *162:38 45.5771 
4 *162:38 *1026:A0 38 
*END

*D_NET *163 0.0256669
*CONN
*I *1061:A2 I *D sky130_fd_sc_hd__a21oi_1
*I *1026:A1 I *D sky130_fd_sc_hd__mux2_1
*I *1024:Y O *D sky130_fd_sc_hd__nand2_1
*CAP
1 *1061:A2 0
2 *1026:A1 0
3 *1024:Y 0.00122757
4 *163:51 0.0028988
5 *163:34 0.000717714
6 *163:18 0.00605349
7 *163:6 0.00366454
8 *163:18 *175:37 0.00151186
9 *163:18 *183:10 5.58873e-06
10 *163:18 *187:30 2.05503e-05
11 *163:18 *203:22 0
12 *163:18 *212:30 0.000684664
13 *163:18 *226:30 0.000208268
14 *163:34 *950:B 0.000431872
15 *163:34 *1140:A 5.56279e-05
16 *163:34 *164:16 2.93431e-05
17 *163:34 *204:28 0.000177349
18 *163:34 *236:33 2.02872e-05
19 *163:51 *189:32 0
20 *163:51 *200:14 0.000171149
21 *163:51 *200:28 0.000386131
22 *163:51 *211:18 0.000213489
23 *163:51 *254:45 0.00173028
24 *163:51 *271:24 0.000210856
25 *1140:B *163:34 5.50049e-05
26 *3:21 *163:18 0.000110198
27 *27:16 *163:18 0.000621381
28 *31:10 *163:6 0.000141183
29 *58:6 *163:51 0.000108615
30 *64:30 *163:34 0.000110253
31 *67:32 *163:51 7.9469e-05
32 *69:8 *163:34 0.000717873
33 *69:14 *163:34 5.79413e-06
34 *80:36 *163:51 0.000158111
35 *95:12 *163:34 0.000173873
36 *102:16 *163:34 0.000114296
37 *115:40 *163:34 0.000102538
38 *130:35 *163:51 0
39 *134:37 *163:6 0.000767371
40 *136:24 *163:18 0.00026846
41 *136:24 *163:51 0.00144251
42 *154:30 *163:18 0.00027057
*RES
1 *1024:Y *163:6 40.2964 
2 *163:6 *163:18 38.5581 
3 *163:18 *163:34 45.784 
4 *163:34 *1026:A1 23 
5 *163:18 *163:51 42.2551 
6 *163:51 *1061:A2 23 
*END

*D_NET *164 0.0052869
*CONN
*I *1026:S I *D sky130_fd_sc_hd__mux2_1
*I *1025:X O *D sky130_fd_sc_hd__a31o_1
*CAP
1 *1026:S 0
2 *1025:X 0.00028502
3 *164:16 0.000901757
4 *164:8 0.00118678
5 *164:8 *209:45 0.00062793
6 *164:16 *252:40 3.63556e-05
7 *32:36 *164:16 0.000230696
8 *36:22 *164:16 0.000212844
9 *54:12 *164:16 0.000937492
10 *64:30 *164:16 1.46462e-05
11 *90:60 *164:16 2.43944e-05
12 *103:26 *164:16 0.000173881
13 *103:32 *164:16 0.000138607
14 *121:73 *164:8 6.35684e-05
15 *121:87 *164:8 0.00042359
16 *163:34 *164:16 2.93431e-05
*RES
1 *1025:X *164:8 45.2914 
2 *164:8 *164:16 32.98 
3 *164:16 *1026:S 23 
*END

*D_NET *165 0.00537969
*CONN
*I *1035:A2_N I *D sky130_fd_sc_hd__a2bb2o_4
*I *1026:X O *D sky130_fd_sc_hd__mux2_1
*CAP
1 *1035:A2_N 0
2 *1026:X 0.00151483
3 *165:16 0.000159505
4 *165:6 0.00167434
5 *165:6 *234:163 0.000444212
6 *165:16 *198:28 0
7 *165:16 *206:57 9.92345e-05
8 *165:16 *227:71 4.31746e-05
9 *165:16 *237:43 5.53384e-05
10 *165:16 *237:51 1.59909e-05
11 *90:42 *165:6 0.000782606
12 *90:60 *165:6 0.000590461
*RES
1 *1026:X *165:6 43.6314 
2 *165:6 *165:16 33.1486 
3 *165:16 *1035:A2_N 23 
*END

*D_NET *166 0.0204237
*CONN
*I *1029:A1 I *D sky130_fd_sc_hd__a21boi_4
*I *1027:X O *D sky130_fd_sc_hd__and2_1
*CAP
1 *1029:A1 0.000217616
2 *1027:X 0.000139722
3 *166:28 0.00144445
4 *166:16 0.00438177
5 *166:10 0.00329466
6 *166:10 *269:18 9.28078e-06
7 *166:16 *175:37 0.000133454
8 *166:16 *180:14 4.74824e-05
9 *166:16 *182:24 6.25598e-05
10 *166:16 *182:39 0.000506869
11 *166:16 *184:12 0.00133873
12 *166:16 *190:30 0.000285858
13 *166:16 *197:36 0.00153516
14 *166:16 *197:48 0.000195169
15 *166:16 *205:40 0.00264711
16 *166:16 *216:79 0
17 *166:16 *245:16 0.000191264
18 *166:16 *246:10 0
19 *166:28 *180:76 0
20 *166:28 *182:47 0.000349114
21 *166:28 *184:12 1.33243e-05
22 *166:28 *188:18 0.000461124
23 *166:28 *245:16 0.00135643
24 an[3] *166:28 2.26497e-05
25 seg[0] *166:28 2.26497e-05
26 seg[1] *166:28 2.26497e-05
27 seg[2] *166:28 8.76002e-05
28 seg[3] *166:28 0
29 seg[5] *166:16 7.87552e-05
30 seg[6] *166:16 0
31 *28:30 *166:16 0
32 *30:28 *166:16 0.000120171
33 *45:24 *166:16 0.00040892
34 *84:147 *166:28 0.000115228
35 *126:28 *166:16 0.000120171
36 *128:12 *166:16 0
37 *128:12 *166:28 0.000262113
38 *128:20 *166:28 0
39 *135:10 *166:28 0
40 *147:28 *166:10 0.000132567
41 *148:10 *166:10 9.99433e-06
42 *150:50 *1029:A1 0.000313249
43 *150:58 *1029:A1 9.5877e-05
*RES
1 *1027:X *166:10 48.4339 
2 *166:10 *166:16 42.6745 
3 *166:16 *166:28 48.1234 
4 *166:28 *1029:A1 42.9093 
*END

*D_NET *167 0.0208294
*CONN
*I *277:DIODE I *D sky130_fd_sc_hd__diode_2
*I *1029:B1_N I *D sky130_fd_sc_hd__a21boi_4
*I *1028:X O *D sky130_fd_sc_hd__a211o_1
*CAP
1 *277:DIODE 0
2 *1029:B1_N 0.000138853
3 *1028:X 0.000257792
4 *167:38 0.00188856
5 *167:32 0.00208962
6 *167:22 0.00213557
7 *167:12 0.00325888
8 *167:8 0.00172102
9 *1029:B1_N *207:18 3.55887e-05
10 *1029:B1_N *256:28 0.000276557
11 *167:8 *259:50 0.00017088
12 *167:12 *185:47 0.00119154
13 *167:12 *255:63 0.000392489
14 *167:12 *270:10 0.000252967
15 *167:32 *261:33 0.000118471
16 *167:32 *263:18 0.000516801
17 *167:38 *185:61 0
18 *167:38 *193:8 3.44786e-05
19 *167:38 *207:18 0.000120903
20 *167:38 *208:8 0.000188934
21 *167:38 *263:18 0.00102247
22 *167:38 *263:84 0.000175903
23 *965:A *167:32 0.000261206
24 *983:A *167:22 0.000550841
25 *21:34 *167:22 9.10986e-05
26 *37:10 *167:12 0.00144464
27 *46:20 *167:22 0.000137151
28 *49:76 *167:22 1.02561e-05
29 *77:87 *167:32 6.82197e-05
30 *82:162 *1029:B1_N 3.3123e-05
31 *82:162 *167:38 0.000105563
32 *83:188 *167:22 0.000767524
33 *85:63 *167:38 1.03836e-05
34 *86:12 *167:38 0.000121803
35 *93:37 *167:22 0.000246845
36 *97:37 *167:32 0.000120712
37 *98:30 *167:22 4.86724e-05
38 *98:42 *167:12 9.38708e-05
39 *102:16 *167:12 0
40 *104:10 *167:32 2.02872e-05
41 *128:44 *167:22 0.000411905
42 *155:133 *167:12 0.00015388
43 *155:143 *167:12 5.57265e-05
44 *162:22 *167:12 8.73763e-05
*RES
1 *1028:X *167:8 41.48 
2 *167:8 *167:12 48.9507 
3 *167:12 *167:22 44.7813 
4 *167:22 *167:32 32.5079 
5 *167:32 *167:38 40.6961 
6 *167:38 *1029:B1_N 41.8529 
7 *167:38 *277:DIODE 38 
*END

*D_NET *168 0.0358279
*CONN
*I *1030:B I *D sky130_fd_sc_hd__xnor2_2
*I *1038:B I *D sky130_fd_sc_hd__or2_1
*I *1029:Y O *D sky130_fd_sc_hd__a21boi_4
*CAP
1 *1030:B 0
2 *1038:B 0
3 *1029:Y 0.000444157
4 *168:63 0.00101684
5 *168:55 0.00277138
6 *168:53 0.00175455
7 *168:51 0.00266101
8 *168:49 0.00384822
9 *168:32 0.00102652
10 *168:20 0.00328979
11 *168:6 0.00152022
12 *168:6 *256:28 0.00103483
13 *168:20 *269:53 4.74508e-05
14 *168:32 *173:38 6.99132e-06
15 *168:32 *257:10 0.000146614
16 *168:32 *269:53 0.000801041
17 *168:49 *226:30 0.000171483
18 *168:49 *261:33 0.00050031
19 *168:49 *264:31 7.92903e-05
20 *168:51 *219:20 0.000964789
21 *168:55 *187:16 0.000846999
22 *168:55 *189:32 0.000450342
23 *168:55 *211:34 0.00159228
24 *168:55 *216:20 0
25 *168:63 *169:10 0.00010018
26 *168:63 *215:14 0.000514744
27 *168:63 *216:20 0
28 *1190:A *168:55 2.5343e-05
29 *1:17 *168:55 2.5343e-05
30 *65:18 *168:20 0.000273111
31 *67:10 *168:55 6.40765e-05
32 *70:32 *168:55 0.000111445
33 *80:36 *168:55 0.000161898
34 *85:57 *168:20 0.000467082
35 *90:84 *168:32 0.00015844
36 *90:100 *168:32 0.000631142
37 *90:100 *168:49 0.00046256
38 *95:91 *168:20 9.84513e-05
39 *97:16 *168:6 0.000726451
40 *109:85 *168:20 0.000302149
41 *116:23 *168:20 1.48425e-05
42 *116:60 *168:32 8.78604e-05
43 *128:44 *168:20 0.00146811
44 *141:18 *168:32 9.21397e-05
45 *141:66 *168:49 0.00052328
46 *146:28 *168:51 0
47 *147:10 *168:55 0.00122337
48 *147:20 *168:55 0.000410416
49 *152:24 *168:55 0.00280055
50 *158:10 *168:55 1.52259e-05
51 *158:26 *168:32 9.45658e-05
*RES
1 *1029:Y *168:6 35.0557 
2 *168:6 *168:20 38.014 
3 *168:20 *168:32 36.0865 
4 *168:32 *1038:B 23 
5 *168:20 *168:49 44.6237 
6 *168:49 *168:51 54.9343 
7 *168:51 *168:53 15 
8 *168:53 *168:55 78.9939 
9 *168:55 *168:63 36.7604 
10 *168:63 *1030:B 23 
*END

*D_NET *169 0.0148553
*CONN
*I *1033:A I *D sky130_fd_sc_hd__or2_1
*I *1039:A1 I *D sky130_fd_sc_hd__o21ai_2
*I *1034:A1 I *D sky130_fd_sc_hd__a21oi_1
*I *1030:Y O *D sky130_fd_sc_hd__xnor2_2
*CAP
1 *1033:A 0.00032786
2 *1039:A1 0
3 *1034:A1 0
4 *1030:Y 5.88493e-05
5 *169:47 0.000733073
6 *169:35 0.00229841
7 *169:29 0.00175398
8 *169:16 0.00178519
9 *169:10 0.00132753
10 *1033:A *1033:B 0
11 *1033:A *253:29 7.38638e-05
12 *169:10 *215:14 0.00010018
13 *169:16 *1138:A 3.47728e-05
14 *169:16 *217:30 5.3304e-05
15 *169:16 *227:14 0.000882912
16 *169:29 *217:30 0.000157229
17 *169:29 *250:52 1.15883e-05
18 *169:35 *1033:B 0
19 *169:35 *171:52 0
20 *169:35 *250:64 0.00106431
21 *169:35 *259:34 0.000150466
22 *169:47 *171:40 0.000114464
23 *169:47 *233:12 5.3304e-05
24 *169:47 *248:12 0.000687962
25 *169:47 *248:23 0.00061606
26 *169:47 *258:20 0.000101436
27 *169:47 *270:44 0.000263534
28 *1034:B1 *169:29 0.000135037
29 *1116:A *169:35 2.43944e-05
30 *1139:A *169:29 0.000283177
31 *36:22 *169:47 0.000189707
32 *37:22 *169:16 0.000131431
33 *45:8 *169:16 5.5502e-05
34 *49:18 *169:29 0
35 *53:20 *169:29 0.000332765
36 *64:96 *169:16 0.000156843
37 *75:8 *169:47 4.06584e-05
38 *94:18 *169:16 0
39 *95:30 *169:16 3.87221e-06
40 *113:36 *169:16 1.00446e-05
41 *115:28 *169:35 6.86529e-05
42 *116:78 *1033:A 2.41841e-05
43 *116:82 *1033:A 1.34415e-05
44 *116:90 *1033:A 1.55512e-05
45 *116:90 *169:35 1.74874e-06
46 *121:87 *1033:A 0.000205493
47 *121:87 *169:35 0.000252514
48 *124:10 *169:35 1.75524e-05
49 *134:31 *169:16 6.12484e-05
50 *145:73 *169:47 8.10232e-05
51 *161:42 *169:16 0
52 *168:63 *169:10 0.00010018
*RES
1 *1030:Y *169:10 39.7193 
2 *169:10 *169:16 37.2471 
3 *169:16 *1034:A1 23 
4 *169:16 *169:29 39.1557 
5 *169:29 *169:35 33.4357 
6 *169:35 *169:47 47.4621 
7 *169:47 *1039:A1 38 
8 *169:35 *1033:A 43.4271 
*END

*D_NET *170 0.0137293
*CONN
*I *1061:A1 I *D sky130_fd_sc_hd__a21oi_1
*I *1032:A1 I *D sky130_fd_sc_hd__a21oi_2
*I *1031:X O *D sky130_fd_sc_hd__or2_1
*CAP
1 *1061:A1 0.000822103
2 *1032:A1 0.000177807
3 *1031:X 2.77218e-05
4 *170:43 0.00286369
5 *170:31 0.00268891
6 *170:8 0.000852843
7 *1032:A1 *251:16 0.000141098
8 *1032:A1 *257:10 2.19845e-05
9 *1032:A1 *261:14 0.000188426
10 *1061:A1 *199:14 0.000505822
11 *1061:A1 *200:28 0.000141828
12 *170:8 *256:18 2.64616e-05
13 *170:31 *1022:A1_N 1.6318e-05
14 *170:31 *261:14 0.000161527
15 *170:43 *949:A_N 7.07867e-05
16 *170:43 *199:14 0.00014384
17 *170:43 *210:53 0
18 *170:43 *234:134 7.01566e-05
19 *170:43 *236:194 0.000564481
20 *1022:A2_N *170:31 1.00493e-05
21 *77:43 *170:31 0.00026382
22 *77:49 *170:31 5.3304e-05
23 *77:72 *170:43 0.00113074
24 *88:12 *170:31 9.02364e-05
25 *88:54 *170:31 7.13587e-05
26 *92:10 *170:31 0.000135037
27 *99:47 *170:8 5.3304e-05
28 *100:8 *170:43 5.42593e-05
29 *104:14 *170:43 0.000364942
30 *106:57 *170:43 0.000213739
31 *108:18 *170:31 8.87238e-05
32 *110:53 *170:31 0.000499247
33 *110:68 *170:31 9.78729e-06
34 *120:76 *170:31 0.000178227
35 *120:88 *170:31 5.79413e-06
36 *123:16 *1032:A1 6.17437e-06
37 *127:53 *1032:A1 5.56279e-05
38 *128:44 *170:43 0.000401599
39 *132:10 *170:31 0.000127754
40 *161:10 *170:31 0.000175903
41 *161:76 *1032:A1 0.000199478
42 *161:76 *170:31 5.43589e-05
*RES
1 *1031:X *170:8 38.6214 
2 *170:8 *1032:A1 42.5364 
3 *170:8 *170:31 45.66 
4 *170:31 *170:43 49.2821 
5 *170:43 *1061:A1 39.8407 
*END

*D_NET *171 0.0148036
*CONN
*I *1039:A2 I *D sky130_fd_sc_hd__o21ai_2
*I *1033:B I *D sky130_fd_sc_hd__or2_1
*I *1034:A2 I *D sky130_fd_sc_hd__a21oi_1
*I *1032:Y O *D sky130_fd_sc_hd__a21oi_2
*CAP
1 *1039:A2 6.81541e-05
2 *1033:B 0.000362811
3 *1034:A2 0
4 *1032:Y 0.0001566
5 *171:52 0.00155068
6 *171:40 0.00306181
7 *171:36 0.00146387
8 *171:20 0.00102403
9 *171:14 0.000796916
10 *1033:B *172:8 4.93812e-05
11 *1033:B *174:108 0.000144501
12 *1033:B *230:55 5.56356e-05
13 *1033:B *248:12 0.00013347
14 *1033:B *253:8 0.000285073
15 *1033:B *253:14 0.000187169
16 *1039:A2 *191:97 4.96207e-05
17 *1039:A2 *201:16 2.43944e-05
18 *171:36 *1150:A1 0.000137368
19 *171:36 *191:97 4.3271e-05
20 *171:36 *201:16 0.000215818
21 *171:36 *258:24 9.28078e-06
22 *171:36 *270:44 0.000125347
23 *171:40 *233:12 8.72892e-05
24 *171:40 *258:20 0.000114896
25 *171:52 *226:30 8.99457e-05
26 *171:52 *227:14 9.10172e-05
27 *171:52 *230:26 1.51002e-05
28 *171:52 *253:14 0.000397181
29 *171:52 *259:34 0
30 *1033:A *1033:B 0
31 *1150:S *171:20 3.49851e-05
32 *1150:S *171:36 2.46906e-05
33 *36:22 *171:40 6.39003e-05
34 *37:22 *171:52 0.00015313
35 *57:68 *171:52 3.95179e-05
36 *64:88 *171:52 0.000119248
37 *93:43 *171:36 0.000224244
38 *100:40 *171:52 0.00121712
39 *103:43 *171:14 0.00015573
40 *103:43 *171:20 8.35872e-05
41 *104:16 *171:52 2.48288e-05
42 *116:82 *1033:B 2.94893e-05
43 *116:90 *1033:B 9.99433e-06
44 *126:56 *171:14 0.000142053
45 *126:56 *171:20 0.000800938
46 *130:35 *171:52 2.93599e-05
47 *130:56 *171:52 5.35681e-05
48 *145:73 *171:20 0.000662134
49 *148:10 *171:36 8.0036e-05
50 *169:35 *1033:B 0
51 *169:35 *171:52 0
52 *169:47 *171:40 0.000114464
*RES
1 *1032:Y *171:14 41.5214 
2 *171:14 *171:20 28.6714 
3 *171:20 *171:36 38.0786 
4 *171:36 *171:40 28.9614 
5 *171:40 *171:52 41.8409 
6 *171:52 *1034:A2 23 
7 *171:40 *1033:B 46.41 
8 *171:20 *1039:A2 24.595 
*END

*D_NET *172 0.00903026
*CONN
*I *1035:B1 I *D sky130_fd_sc_hd__a2bb2o_4
*I *1033:X O *D sky130_fd_sc_hd__or2_1
*CAP
1 *1035:B1 0
2 *1033:X 0.000504849
3 *172:22 0.00173378
4 *172:16 0.00244916
5 *172:8 0.00122023
6 *172:8 *174:108 6.26075e-05
7 *172:8 *230:55 0.000345263
8 *172:16 *1168:CLK 0.00022668
9 *172:16 *233:12 0.00020402
10 *172:16 *233:19 7.12679e-05
11 *172:16 *233:133 0.000238258
12 *172:16 *233:137 2.64616e-05
13 *172:22 *1063:B 0.000137525
14 *172:22 *1074:A1 1.59094e-05
15 *172:22 *1074:A2 3.28708e-05
16 *172:22 *1168:CLK 0.000147973
17 *172:22 *206:57 1.6458e-05
18 *172:22 *210:49 8.06211e-05
19 *172:22 *237:43 0.000684397
20 *1033:B *172:8 4.93812e-05
21 *1063:A *172:22 1.34995e-05
22 *31:34 *172:22 2.89397e-05
23 *77:35 *172:22 2.18286e-05
24 *90:84 *172:22 5.78554e-05
25 *96:36 *172:16 0.000561573
26 *123:42 *172:16 3.27275e-05
27 *123:59 *172:16 5.3304e-05
28 *155:80 *172:22 1.2818e-05
*RES
1 *1033:X *172:8 44.815 
2 *172:8 *172:16 29.1271 
3 *172:16 *172:22 37.4336 
4 *172:22 *1035:B1 38 
*END

*D_NET *173 0.0229216
*CONN
*I *1035:B2 I *D sky130_fd_sc_hd__a2bb2o_4
*I *1034:Y O *D sky130_fd_sc_hd__a21oi_1
*CAP
1 *1035:B2 0
2 *1034:Y 0.000413921
3 *173:38 0.000399632
4 *173:30 0.00529929
5 *173:20 0.005729
6 *173:14 0.00124326
7 *173:14 *204:44 0.000183616
8 *173:14 *217:30 0.000108841
9 *173:14 *227:14 5.87075e-05
10 *173:20 *233:47 0.000517104
11 *173:20 *250:25 9.45631e-05
12 *173:30 *178:38 0.000346865
13 *173:30 *179:14 0
14 *173:30 *196:41 0.00218847
15 *173:30 *211:26 0.00106591
16 *173:30 *229:16 0.000786343
17 *173:30 *250:8 0.000188371
18 *173:30 *271:20 2.37886e-05
19 *173:30 *271:24 8.02636e-05
20 *173:38 *228:10 0.000337898
21 *173:38 *237:43 0.000117538
22 *173:38 *257:10 0.00018249
23 *34:26 *173:30 0.000143999
24 *38:14 *173:20 0.000209183
25 *39:24 *173:30 0.000449498
26 *70:32 *173:30 0.000233674
27 *77:35 *173:38 8.63814e-05
28 *85:30 *173:30 2.47789e-05
29 *88:54 *173:30 0.000161393
30 *90:84 *173:38 4.36452e-05
31 *90:100 *173:30 8.79918e-05
32 *101:26 *173:30 0.00107943
33 *108:30 *173:30 9.76012e-05
34 *109:40 *173:30 4.82958e-05
35 *113:36 *173:14 9.20974e-06
36 *113:55 *173:30 0.00025538
37 *134:10 *173:14 4.25209e-05
38 *139:8 *173:14 6.71323e-05
39 *145:73 *173:30 0.000169391
40 *155:80 *173:38 0.000273159
41 *158:10 *173:30 2.24048e-05
42 *161:76 *173:38 4.36547e-05
43 *168:32 *173:38 6.99132e-06
*RES
1 *1034:Y *173:14 45.7834 
2 *173:14 *173:20 43.9614 
3 *173:20 *173:30 42.9689 
4 *173:30 *173:38 32.3111 
5 *173:38 *1035:B2 23 
*END

*D_NET *174 0.036578
*CONN
*I *1089:A1 I *D sky130_fd_sc_hd__mux2_1
*I *1148:A1 I *D sky130_fd_sc_hd__mux2_1
*I *1075:B1 I *D sky130_fd_sc_hd__a21o_1
*I *1074:A2 I *D sky130_fd_sc_hd__o31ai_1
*I *1036:B I *D sky130_fd_sc_hd__nor2_2
*I *1111:A1 I *D sky130_fd_sc_hd__mux2_1
*I *1124:A0 I *D sky130_fd_sc_hd__mux2_1
*I *1077:A2 I *D sky130_fd_sc_hd__a211o_1
*I *1069:A I *D sky130_fd_sc_hd__inv_2
*I *1035:X O *D sky130_fd_sc_hd__a2bb2o_4
*CAP
1 *1089:A1 0.00037783
2 *1148:A1 0
3 *1075:B1 0
4 *1074:A2 1.85354e-05
5 *1036:B 0
6 *1111:A1 0.000334415
7 *1124:A0 0
8 *1077:A2 0
9 *1069:A 0.000298127
10 *1035:X 0.00037629
11 *174:134 0.00141257
12 *174:124 0.00246623
13 *174:112 0.000817692
14 *174:108 0.00117427
15 *174:83 0.00154169
16 *174:73 0.000915902
17 *174:67 0.00141577
18 *174:57 0.00133049
19 *174:45 0.000444549
20 *174:41 0.000857974
21 *174:29 0.00185054
22 *174:23 0.00120619
23 *174:6 0.00116754
24 *1069:A *223:18 0.000178227
25 *1069:A *268:41 0.00030481
26 *1089:A1 *1087:S 0.000366342
27 *1089:A1 *1089:A0 7.87243e-05
28 *1089:A1 *218:8 5.14826e-05
29 *1089:A1 *218:10 4.22257e-05
30 *1089:A1 *219:8 0
31 *1111:A1 *259:50 0.000285662
32 *174:6 *237:51 9.77405e-05
33 *174:6 *268:41 0.000384456
34 *174:29 *218:10 0.00131514
35 *174:29 *263:32 0.000729871
36 *174:41 *1107:A0 0.000224156
37 *174:41 *237:78 9.41704e-05
38 *174:41 *271:74 0.000123147
39 *174:45 *271:74 5.40337e-05
40 *174:57 *208:73 4.46854e-05
41 *174:57 *236:194 5.5792e-05
42 *174:57 *264:31 7.76789e-05
43 *174:67 *208:73 9.66668e-05
44 *174:67 *236:194 9.66668e-05
45 *174:67 *251:34 1.09903e-05
46 *174:67 *264:10 0.000147441
47 *174:67 *264:31 0.000725614
48 *174:67 *271:68 2.41841e-05
49 *174:73 *191:122 0.000197885
50 *174:73 *230:96 4.96192e-05
51 *174:73 *251:34 0.000475514
52 *174:83 *1077:B1 5.50106e-05
53 *174:83 *191:122 0.000418291
54 *174:83 *234:112 0.000115987
55 *174:108 *1077:A1 0.000231913
56 *174:108 *1077:B1 1.56446e-05
57 *174:108 *230:55 0.000142011
58 *174:108 *233:12 0.000378943
59 *174:108 *234:112 1.3523e-05
60 *174:124 *213:10 0.00020698
61 *174:124 *213:16 5.3304e-05
62 *174:124 *230:26 0.00019999
63 *174:134 *213:10 0.000128988
64 *174:134 *230:26 4.60157e-05
65 *987:A1 *174:108 0.000670579
66 *1016:B1 *174:134 0.000277931
67 *1033:B *174:108 0.000144501
68 *1036:A *174:124 5.3304e-05
69 *1055:A3 *1089:A1 0
70 *1107:S *174:41 1.3523e-05
71 *1107:S *174:45 0.000366658
72 *1107:S *174:57 8.12496e-05
73 *1111:S *1111:A1 2.31591e-05
74 *1124:S *174:134 3.56172e-05
75 *1146:S *1069:A 0.000298503
76 *1146:S *174:23 3.41998e-06
77 *1148:S *174:45 2.46906e-05
78 *1148:S *174:57 0.000486504
79 *21:34 *174:67 9.41618e-05
80 *25:18 *174:73 0.000305366
81 *25:18 *174:83 0.000393956
82 *27:16 *174:134 0.000660416
83 *29:10 *174:134 8.02685e-05
84 *30:8 *1089:A1 2.14486e-05
85 *30:12 *174:41 0.000145163
86 *31:34 *1074:A2 9.81081e-06
87 *32:52 *174:108 0.00010762
88 *39:24 *174:29 0.000102363
89 *49:51 *174:83 6.97305e-05
90 *49:76 *174:57 0.000305895
91 *50:6 *174:45 3.05276e-05
92 *50:10 *174:23 3.27663e-05
93 *50:10 *174:29 0.00016505
94 *53:20 *174:124 6.52749e-05
95 *64:88 *174:134 0.000333719
96 *64:96 *174:134 0.000128273
97 *71:43 *174:67 0.000528281
98 *78:97 *174:41 3.87221e-06
99 *88:64 *174:23 0.000224162
100 *96:36 *174:108 0.000378943
101 *97:37 *174:57 0.000199535
102 *99:26 *174:83 2.5172e-05
103 *100:40 *174:134 0.000122999
104 *103:26 *174:108 7.14493e-05
105 *103:43 *174:67 1.62657e-05
106 *104:16 *174:134 6.87591e-05
107 *110:70 *174:23 0.000521552
108 *112:18 *1069:A 0.00025532
109 *116:8 *174:41 0.000346663
110 *116:23 *174:23 0.000266799
111 *116:23 *174:29 0
112 *116:39 *174:23 0.000108994
113 *122:16 *174:67 0.000109457
114 *122:29 *174:67 6.33387e-05
115 *123:16 *174:73 6.9553e-05
116 *123:22 *174:73 5.52432e-05
117 *125:46 *174:108 1.21972e-05
118 *126:56 *174:67 1.05441e-05
119 *129:36 *174:134 0.000357147
120 *145:75 *174:67 6.87992e-05
121 *155:82 *174:6 0.000144892
122 *155:111 *1089:A1 0.000234542
123 *155:126 *1069:A 0.000134853
124 *155:126 *174:6 0.000193254
125 *161:42 *174:134 1.24007e-05
126 *172:8 *174:108 6.26075e-05
127 *172:22 *1074:A2 3.28708e-05
*RES
1 *1035:X *174:6 31.7207 
2 *174:6 *1069:A 31.265 
3 *174:6 *174:23 40.0671 
4 *174:23 *174:29 34.0779 
5 *174:29 *174:41 44.2721 
6 *174:41 *174:45 18.9564 
7 *174:45 *174:57 39.4664 
8 *174:57 *174:67 48.6429 
9 *174:67 *174:73 25.1086 
10 *174:73 *174:83 25.3364 
11 *174:83 *1077:A2 23 
12 *174:83 *174:108 37.1643 
13 *174:108 *174:112 16.5743 
14 *174:112 *174:124 27.3457 
15 *174:124 *174:134 40.1679 
16 *174:134 *1124:A0 23 
17 *174:124 *1111:A1 42.9093 
18 *174:112 *1036:B 23 
19 *174:73 *1074:A2 38.3832 
20 *174:57 *1075:B1 23 
21 *174:45 *1148:A1 23 
22 *174:29 *1089:A1 47.5493 
*END

*D_NET *175 0.0230553
*CONN
*I *1065:A I *D sky130_fd_sc_hd__xnor2_1
*I *1067:A I *D sky130_fd_sc_hd__nor2_2
*I *1036:Y O *D sky130_fd_sc_hd__nor2_2
*CAP
1 *1065:A 0
2 *1067:A 0
3 *1036:Y 0.000119387
4 *175:37 0.00440925
5 *175:20 0.000786984
6 *175:12 0.00531562
7 *175:12 *205:22 0.000165074
8 *175:20 *205:10 0.000522084
9 *175:20 *205:22 0.000388776
10 *175:20 *207:46 2.0576e-05
11 *175:37 *978:A 0.000330095
12 *175:37 *180:57 0.000531985
13 *175:37 *185:20 0
14 *175:37 *197:36 0.000449813
15 *175:37 *203:22 0.000188935
16 *175:37 *203:30 6.10551e-06
17 *175:37 *215:14 0.000132697
18 *175:37 *226:30 0.000551239
19 *978:B *175:37 0.000101071
20 *23:26 *175:37 0.00144376
21 *45:24 *175:37 0.00340685
22 *69:14 *175:20 0.000233673
23 *78:36 *175:37 0.000106671
24 *82:100 *175:12 2.26406e-05
25 *85:20 *175:37 7.23578e-05
26 *90:70 *175:12 0.0001412
27 *90:70 *175:20 0.000378459
28 *95:18 *175:37 1.38064e-05
29 *96:36 *175:12 2.33476e-05
30 *98:60 *175:20 0.000618843
31 *106:111 *175:20 0.000401852
32 *115:40 *175:20 6.579e-05
33 *116:102 *175:37 0.000447218
34 *117:12 *175:37 1.38508e-05
35 *163:18 *175:37 0.00151186
36 *166:16 *175:37 0.000133454
*RES
1 *1036:Y *175:12 46.6776 
2 *175:12 *175:20 38.1927 
3 *175:20 *1067:A 23 
4 *175:12 *175:37 39.8499 
5 *175:37 *1065:A 38 
*END

*D_NET *176 0.00860079
*CONN
*I *1052:A1 I *D sky130_fd_sc_hd__a32o_4
*I *1037:Y O *D sky130_fd_sc_hd__o21ai_1
*CAP
1 *1052:A1 0.000306448
2 *1037:Y 0.000708052
3 *176:16 0.0019199
4 *176:8 0.0023215
5 *1052:A1 *191:8 9.90115e-05
6 *176:8 *1080:A 1.79293e-05
7 *176:16 *197:36 0
8 *176:16 *223:34 0.00026828
9 *31:10 *1052:A1 5.74259e-05
10 *64:66 *176:16 5.51845e-05
11 *81:142 *176:8 0.000862666
12 *82:18 *176:16 8.57577e-05
13 *108:80 *176:16 3.57778e-05
14 *118:14 *1052:A1 5.79559e-05
15 *125:59 *176:16 0.000340097
16 *145:16 *176:16 0.000896937
17 *149:18 *1052:A1 0.000567859
*RES
1 *1037:Y *176:8 48.15 
2 *176:8 *176:16 43.3164 
3 *176:16 *1052:A1 31.265 
*END

*D_NET *177 0.00364187
*CONN
*I *1039:B1 I *D sky130_fd_sc_hd__o21ai_2
*I *1038:X O *D sky130_fd_sc_hd__or2_1
*CAP
1 *1039:B1 0
2 *1038:X 4.30303e-05
3 *177:18 0.000905228
4 *177:8 0.000948258
5 *177:8 *251:16 5.58003e-05
6 *177:18 *178:14 4.56032e-05
7 *177:18 *201:16 5.82853e-05
8 *177:18 *209:45 2.81411e-05
9 *177:18 *227:53 2.34117e-05
10 *177:18 *228:10 0.000140046
11 *177:18 *232:25 5.57532e-05
12 *177:18 *234:148 4.95487e-06
13 *177:18 *244:12 1.26526e-05
14 *177:18 *247:44 0.000107909
15 *177:18 *259:71 7.26878e-05
16 *177:18 *261:14 0.000934019
17 *62:14 *177:18 8.04857e-05
18 *83:42 *177:18 0
19 *141:53 *177:18 2.05503e-05
20 *146:8 *177:18 0.000105049
*RES
1 *1038:X *177:8 38.6214 
2 *177:8 *177:18 33.0836 
3 *177:18 *1039:B1 23 
*END

*D_NET *178 0.0227039
*CONN
*I *1093:A1 I *D sky130_fd_sc_hd__a21oi_2
*I *1047:A I *D sky130_fd_sc_hd__or2_1
*I *1048:A I *D sky130_fd_sc_hd__nand2_1
*I *1039:Y O *D sky130_fd_sc_hd__o21ai_2
*CAP
1 *1093:A1 0
2 *1047:A 0.000164282
3 *1048:A 0
4 *1039:Y 0.000125904
5 *178:71 0.00100565
6 *178:67 0.00181772
7 *178:38 0.00413198
8 *178:18 0.00557977
9 *178:14 0.000597346
10 *1047:A *1093:A2 5.56356e-05
11 *1047:A *186:14 5.79559e-05
12 *1047:A *196:12 2.21792e-05
13 *178:14 *191:97 5.3304e-05
14 *178:14 *209:45 9.28078e-06
15 *178:14 *227:53 1.24585e-05
16 *178:14 *232:25 5.50106e-05
17 *178:14 *265:53 3.97621e-05
18 *178:18 *204:28 0.000118405
19 *178:18 *269:26 5.40645e-05
20 *178:18 *269:53 0.000126459
21 *178:38 *179:14 9.95665e-05
22 *178:38 *179:32 0.000330475
23 *178:38 *185:20 0.000167959
24 *178:38 *185:36 0.000287065
25 *178:38 *198:44 0.000913853
26 *178:38 *228:24 0.000226948
27 *178:38 *242:24 0.000691414
28 *178:38 *269:53 4.24018e-05
29 *178:67 *1095:A2 0
30 *178:67 *1100:A_N 0.000146822
31 *178:67 *198:28 0
32 *178:67 *198:44 2.05503e-05
33 *178:67 *227:71 0.000243422
34 *178:67 *230:77 0.000183467
35 *178:67 *237:51 4.53978e-05
36 *178:67 *242:24 0.000380812
37 *178:71 *1093:B1 9.77405e-05
38 *178:71 *196:12 0.00110415
39 *178:71 *239:109 1.59094e-05
40 *945:A2 *178:71 0.00030849
41 *22:12 *178:38 0.000250846
42 *56:26 *178:71 0.000135037
43 *57:14 *1047:A 1.24376e-05
44 *57:14 *178:71 5.6222e-05
45 *63:28 *178:14 8.73121e-05
46 *84:32 *178:71 8.73233e-05
47 *95:69 *178:18 0.00022462
48 *100:32 *178:38 8.73121e-05
49 *112:91 *178:67 2.32787e-05
50 *112:91 *178:71 0.000201989
51 *116:52 *178:67 2.05503e-05
52 *116:78 *178:38 5.03284e-06
53 *127:53 *178:67 0.000231039
54 *127:53 *178:71 2.02872e-05
55 *130:35 *178:38 0.000131078
56 *139:35 *178:38 0.000115846
57 *141:18 *178:18 0.000156396
58 *141:18 *178:38 8.47743e-05
59 *141:34 *178:18 0.000568872
60 *158:26 *178:38 0.000465546
61 *158:26 *178:67 1.20202e-05
62 *173:30 *178:38 0.000346865
63 *177:18 *178:14 4.56032e-05
*RES
1 *1039:Y *178:14 47.4794 
2 *178:14 *178:18 9.83307 
3 *178:18 *178:38 43.9189 
4 *178:38 *1048:A 23 
5 *178:18 *178:67 42.5261 
6 *178:67 *178:71 20.1757 
7 *178:71 *1047:A 26.0243 
8 *178:71 *1093:A1 23 
*END

*D_NET *179 0.0204774
*CONN
*I *1041:A1 I *D sky130_fd_sc_hd__mux2_1
*I *1040:X O *D sky130_fd_sc_hd__mux2_1
*CAP
1 *1041:A1 0.000151787
2 *1040:X 0.000464857
3 *179:32 0.00511857
4 *179:14 0.00543164
5 *1041:A1 *218:22 0.000393733
6 *179:14 *219:20 1.53524e-05
7 *179:14 *266:28 0.000208334
8 *179:32 *185:20 0.000346311
9 *179:32 *185:36 0.000701796
10 *179:32 *196:22 0.000286015
11 *179:32 *228:24 0.00165885
12 *179:32 *235:54 2.05503e-05
13 *179:32 *239:76 7.11277e-05
14 *179:32 *263:46 2.17681e-05
15 *179:32 *265:53 0.00240676
16 *179:32 *267:14 6.71781e-05
17 *179:32 *268:24 4.96824e-05
18 *1003:D *1041:A1 7.6804e-05
19 *1041:S *1041:A1 0.000100477
20 *56:14 *179:32 1.15896e-05
21 *57:72 *179:14 4.89846e-05
22 *64:30 *179:32 0.00099696
23 *77:117 *1041:A1 6.17437e-06
24 *82:30 *1041:A1 4.35676e-05
25 *84:38 *179:32 0.000195859
26 *95:69 *179:32 0.000376035
27 *115:40 *179:32 4.34864e-05
28 *116:78 *179:32 0.000551569
29 *118:59 *1041:A1 1.35999e-05
30 *119:56 *179:32 9.57802e-05
31 *130:35 *179:32 2.54437e-05
32 *139:35 *179:14 4.66905e-05
33 *173:30 *179:14 0
34 *178:38 *179:14 9.95665e-05
35 *178:38 *179:32 0.000330475
*RES
1 *1040:X *179:14 47.7279 
2 *179:14 *179:32 42.1055 
3 *179:32 *1041:A1 43.0336 
*END

*D_NET *180 0.0295316
*CONN
*I *1045:A I *D sky130_fd_sc_hd__nor2_1
*I *1044:A I *D sky130_fd_sc_hd__and2_1
*I *1050:A1 I *D sky130_fd_sc_hd__mux2_1
*I *1041:X O *D sky130_fd_sc_hd__mux2_1
*CAP
1 *1045:A 0
2 *1044:A 0
3 *1050:A1 8.59279e-05
4 *1041:X 0.00146125
5 *180:76 0.000523598
6 *180:65 0.000324734
7 *180:57 0.000918091
8 *180:53 0.00260646
9 *180:39 0.00279074
10 *180:31 0.000964158
11 *180:14 0.000532835
12 *180:8 0.000783981
13 *180:6 0.00146125
14 *1050:A1 *1050:A0 5.3304e-05
15 *180:6 *218:22 5.3304e-05
16 *180:6 *239:130 0.000704573
17 *180:14 *182:39 2.46399e-05
18 *180:14 *184:12 9.77051e-06
19 *180:31 *1080:A 9.67842e-05
20 *180:31 *245:16 4.07715e-05
21 *180:39 *182:24 1.21857e-05
22 *180:39 *246:10 0.00174738
23 *180:39 *260:40 0
24 *180:53 *203:30 0.000100069
25 *180:53 *215:14 0.00169999
26 *180:53 *240:8 5.73309e-05
27 *180:57 *215:14 0.00293562
28 *180:65 *1044:B 9.82009e-05
29 *180:65 *183:8 9.69279e-05
30 *180:65 *239:56 0
31 *180:76 *1045:B 0.000267601
32 *180:76 *182:47 2.12347e-06
33 *180:76 *184:8 1.21972e-05
34 *180:76 *188:14 2.02872e-05
35 seg[3] *180:39 2.26497e-05
36 *989:B_N *180:39 0.000222563
37 *1105:C *180:6 1.95448e-05
38 *53:14 *180:65 0.000311554
39 *82:205 *180:39 0.000114083
40 *84:147 *180:6 5.85822e-06
41 *84:147 *180:31 0.0001786
42 *94:6 *180:65 6.97005e-05
43 *100:77 *1050:A1 5.3304e-05
44 *100:77 *180:6 3.54759e-05
45 *106:10 *180:39 0.000529981
46 *106:23 *180:14 0.000223869
47 *106:23 *180:76 0.00165858
48 *116:102 *180:57 0.00202184
49 *118:59 *180:6 0.000438353
50 *118:80 *180:76 5.56279e-05
51 *127:10 *180:39 0.000138747
52 *128:12 *180:31 0.000243477
53 *128:12 *180:39 1.22803e-05
54 *135:6 *1050:A1 4.05745e-05
55 *135:6 *180:14 0.000107611
56 *135:10 *180:14 0.000251509
57 *135:10 *180:76 0.00171029
58 *166:16 *180:14 4.74824e-05
59 *166:28 *180:76 0
60 *175:37 *180:57 0.000531985
*RES
1 *1041:X *180:6 41.7257 
2 *180:6 *180:8 15 
3 *180:8 *180:14 21.5457 
4 *180:14 *1050:A1 24.5743 
5 *180:14 *180:31 49.8886 
6 *180:31 *180:39 40.2093 
7 *180:39 *180:53 47.8943 
8 *180:53 *180:57 47.0657 
9 *180:57 *180:65 37.5193 
10 *180:65 *1044:A 23 
11 *180:8 *180:76 41.4107 
12 *180:76 *1045:A 23 
*END

*D_NET *181 0.0130022
*CONN
*I *1043:B I *D sky130_fd_sc_hd__xnor2_2
*I *1042:X O *D sky130_fd_sc_hd__a31o_1
*CAP
1 *1043:B 0.000295858
2 *1042:X 0.000623182
3 *181:26 0.00373332
4 *181:10 0.00406065
5 *181:26 *182:24 1.45325e-05
6 *181:26 *183:46 0
7 *181:26 *186:26 4.51815e-05
8 *181:26 *200:28 8.56214e-05
9 *988:B *1043:B 0.000153117
10 *39:24 *181:26 4.51815e-05
11 *48:32 *181:26 0.000574205
12 *65:18 *181:10 2.23467e-05
13 *65:18 *181:26 0.000138108
14 *88:64 *181:10 0.000724017
15 *95:91 *181:26 0.000296701
16 *106:37 *181:26 4.8098e-05
17 *110:70 *181:10 2.05503e-05
18 *113:84 *181:26 6.18788e-06
19 *127:37 *181:26 0.00113229
20 *130:76 *181:26 4.24018e-05
21 *131:32 *181:26 0
22 *145:16 *1043:B 0.000940699
*RES
1 *1042:X *181:10 46.5654 
2 *181:10 *181:26 40.9239 
3 *181:26 *1043:B 48.15 
*END

*D_NET *182 0.0246613
*CONN
*I *1045:B I *D sky130_fd_sc_hd__nor2_1
*I *1044:B I *D sky130_fd_sc_hd__and2_1
*I *1043:Y O *D sky130_fd_sc_hd__xnor2_2
*CAP
1 *1045:B 0.000152702
2 *1044:B 5.24418e-05
3 *1043:Y 6.27151e-05
4 *182:47 0.000495694
5 *182:39 0.00102865
6 *182:37 0.00108658
7 *182:24 0.00384937
8 *182:6 0.00426056
9 *1044:B *183:8 6.17437e-06
10 *1045:B *184:8 0.000185424
11 *182:24 *183:22 0.000296177
12 *182:24 *186:26 0.00027219
13 *182:24 *187:30 0.000335491
14 *182:24 *191:54 8.77734e-05
15 *182:24 *205:40 0.000435374
16 *182:24 *206:18 4.15283e-06
17 *182:24 *216:79 0.000229765
18 *182:24 *220:30 0.00264829
19 *182:24 *239:56 7.71855e-05
20 *182:24 *260:40 0.00015547
21 *182:24 *269:6 0.000104089
22 *182:47 *184:12 0.000298325
23 *988:B *182:6 5.3304e-05
24 *988:C *182:6 5.3304e-05
25 *28:30 *182:39 0.00267455
26 *53:20 *182:24 0.000173432
27 *106:23 *182:47 1.64319e-05
28 *118:80 *1045:B 4.51965e-05
29 *127:10 *182:24 5.53115e-05
30 *127:10 *182:37 2.64616e-05
31 *127:27 *182:24 0.00015022
32 *135:10 *182:39 0.00157132
33 *147:28 *182:24 0.00213322
34 *150:46 *182:39 0.0002461
35 *166:16 *182:24 6.25598e-05
36 *166:16 *182:39 0.000506869
37 *166:28 *182:47 0.000349114
38 *180:14 *182:39 2.46399e-05
39 *180:39 *182:24 1.21857e-05
40 *180:65 *1044:B 9.82009e-05
41 *180:76 *1045:B 0.000267601
42 *180:76 *182:47 2.12347e-06
43 *181:26 *182:24 1.45325e-05
*RES
1 *1043:Y *182:6 24.0979 
2 *182:6 *182:24 48.3762 
3 *182:24 *1044:B 39.0979 
4 *182:6 *182:37 21.3386 
5 *182:37 *182:39 40.6414 
6 *182:39 *182:47 37.25 
7 *182:47 *1045:B 42.4536 
*END

*D_NET *183 0.0238396
*CONN
*I *1046:A I *D sky130_fd_sc_hd__nor2_2
*I *1093:B1 I *D sky130_fd_sc_hd__a21oi_2
*I *1044:X O *D sky130_fd_sc_hd__and2_1
*CAP
1 *1046:A 5.92624e-05
2 *1093:B1 0.000100806
3 *1044:X 0.000582567
4 *183:46 0.00367051
5 *183:30 0.00425722
6 *183:22 0.00206985
7 *183:10 0.00175505
8 *183:8 0.000896023
9 *1046:A *191:26 0.000126363
10 *183:8 *187:30 0.00012144
11 *183:8 *191:26 5.50106e-05
12 *183:10 *187:30 0
13 *183:10 *191:26 0.000396624
14 *183:22 *187:30 0.001472
15 *183:30 *190:30 1.30346e-05
16 *183:30 *236:73 0.000120984
17 *183:30 *236:100 1.34914e-05
18 *183:46 *212:58 0
19 *183:46 *221:12 5.26268e-05
20 *183:46 *234:18 9.41618e-05
21 *183:46 *243:20 0.000303936
22 *183:46 *245:14 0.000212118
23 *1044:B *183:8 6.17437e-06
24 *27:16 *183:10 2.74681e-05
25 *32:12 *183:46 0.00121154
26 *33:16 *183:30 0.000526569
27 *35:14 *183:46 0
28 *39:24 *1093:B1 0.000126423
29 *44:22 *183:46 0.00104283
30 *48:32 *183:46 3.21454e-05
31 *49:39 *183:22 0.000535947
32 *53:14 *183:8 0.000135456
33 *56:26 *183:46 6.52177e-06
34 *57:14 *1093:B1 5.11621e-05
35 *64:66 *183:46 0.000183436
36 *77:160 *183:30 0.000116559
37 *79:16 *183:22 5.63799e-05
38 *82:54 *183:30 0.000236768
39 *82:135 *183:46 0.00102737
40 *95:91 *183:46 3.24388e-05
41 *108:49 *1093:B1 5.29785e-05
42 *112:57 *183:30 0.000177879
43 *113:84 *183:46 0.000150058
44 *116:96 *1046:A 0.000125499
45 *116:96 *183:10 0
46 *116:96 *183:22 0.000211893
47 *121:18 *183:46 0.000238715
48 *121:34 *183:46 6.84658e-05
49 *130:76 *183:46 5.27519e-06
50 *141:34 *183:30 0.000172071
51 *147:28 *183:22 0.000412041
52 *163:18 *183:10 5.58873e-06
53 *178:71 *1093:B1 9.77405e-05
54 *180:65 *183:8 9.69279e-05
55 *181:26 *183:46 0
56 *182:24 *183:22 0.000296177
*RES
1 *1044:X *183:8 46.7207 
2 *183:8 *183:10 5.77929 
3 *183:10 *183:22 48.9194 
4 *183:22 *183:30 38.3389 
5 *183:30 *183:46 49.737 
6 *183:46 *1093:B1 48.8275 
7 *183:10 *1046:A 39.9057 
*END

*D_NET *184 0.0216682
*CONN
*I *1046:B I *D sky130_fd_sc_hd__nor2_2
*I *1045:Y O *D sky130_fd_sc_hd__nor2_1
*CAP
1 *1046:B 0
2 *1045:Y 0.00034432
3 *184:22 0.00318078
4 *184:12 0.00408979
5 *184:8 0.00125333
6 *184:12 *245:16 0.00281857
7 *184:22 *186:26 0.000570831
8 *184:22 *187:30 3.71198e-05
9 *184:22 *216:79 0.000139459
10 *184:22 *253:14 5.58003e-05
11 *1045:B *184:8 0.000185424
12 *1052:B1 *184:22 0.000342691
13 *26:28 *184:22 0.000292801
14 *59:10 *184:22 0.000496904
15 *79:16 *184:22 4.96811e-06
16 *106:23 *184:12 0.00178457
17 *131:44 *184:22 0.000142229
18 *150:44 *184:22 0.00391384
19 *154:30 *184:22 0.000102348
20 *157:28 *184:22 0.000240073
21 *166:16 *184:12 0.00133873
22 *166:28 *184:12 1.33243e-05
23 *180:14 *184:12 9.77051e-06
24 *180:76 *184:8 1.21972e-05
25 *182:47 *184:12 0.000298325
*RES
1 *1045:Y *184:8 42.4329 
2 *184:8 *184:12 49.8739 
3 *184:12 *184:22 38.5516 
4 *184:22 *1046:B 23 
*END

*D_NET *185 0.0348904
*CONN
*I *1047:B I *D sky130_fd_sc_hd__or2_1
*I *1093:A2 I *D sky130_fd_sc_hd__a21oi_2
*I *1048:B I *D sky130_fd_sc_hd__nand2_1
*I *1046:Y O *D sky130_fd_sc_hd__nor2_2
*CAP
1 *1047:B 0
2 *1093:A2 2.62112e-05
3 *1048:B 0
4 *1046:Y 0.000202748
5 *185:63 2.62112e-05
6 *185:61 0.00414033
7 *185:47 0.00512388
8 *185:36 0.00117403
9 *185:20 0.00459384
10 *185:8 0.00263901
11 *1093:A2 *196:12 1.59094e-05
12 *185:8 *253:14 0.000262975
13 *185:20 *235:98 0.00015005
14 *185:36 *187:12 5.56356e-05
15 *185:36 *191:142 9.50086e-05
16 *185:36 *204:75 9.41704e-05
17 *185:47 *270:10 0.00175093
18 *185:61 *186:14 9.28078e-06
19 *185:61 *211:18 0.00202724
20 *185:61 *224:12 0
21 *185:61 *256:34 0.000395849
22 *185:61 *264:31 0.00258127
23 *1047:A *1093:A2 5.56356e-05
24 *20:16 *185:36 0.000260132
25 *46:10 *185:61 2.26406e-05
26 *46:20 *185:61 0
27 *48:32 *185:20 4.82958e-05
28 *58:22 *185:61 0.00186282
29 *79:16 *185:8 0
30 *82:185 *185:47 0
31 *83:113 *185:61 0.000210669
32 *85:20 *185:20 0.000206862
33 *90:60 *185:20 0.000609533
34 *95:18 *185:20 0.00161451
35 *95:45 *185:20 4.51815e-05
36 *97:60 *185:61 0
37 *102:16 *185:47 0
38 *106:65 *185:47 0
39 *116:96 *185:8 0.000341111
40 *123:59 *185:36 0.000636844
41 *130:35 *185:36 7.21896e-05
42 *136:24 *185:61 0.000791852
43 *146:24 *185:61 1.54551e-05
44 *161:32 *185:36 3.7437e-05
45 *167:12 *185:47 0.00119154
46 *167:38 *185:61 0
47 *175:37 *185:20 0
48 *178:38 *185:20 0.000167959
49 *178:38 *185:36 0.000287065
50 *179:32 *185:20 0.000346311
51 *179:32 *185:36 0.000701796
*RES
1 *1046:Y *185:8 42.8989 
2 *185:8 *185:20 30.5259 
3 *185:20 *185:36 41.3845 
4 *185:36 *1048:B 23 
5 *185:20 *185:47 40.795 
6 *185:47 *185:61 39.7709 
7 *185:61 *185:63 15 
8 *185:63 *1093:A2 23.6214 
9 *185:63 *1047:B 23 
*END

*D_NET *186 0.0145965
*CONN
*I *1052:A2 I *D sky130_fd_sc_hd__a32o_4
*I *1047:X O *D sky130_fd_sc_hd__or2_1
*CAP
1 *1052:A2 0
2 *1047:X 0.000226957
3 *186:26 0.00609818
4 *186:14 0.00632514
5 *186:14 *196:12 5.03097e-05
6 *186:14 *245:14 1.58796e-05
7 *186:26 *187:30 7.82491e-05
8 *186:26 *191:54 0.000333896
9 *186:26 *216:79 0.000480168
10 *186:26 *234:31 5.08422e-06
11 *1047:A *186:14 5.79559e-05
12 *83:113 *186:14 4.15283e-06
13 *106:37 *186:14 2.30967e-05
14 *181:26 *186:26 4.51815e-05
15 *182:24 *186:26 0.00027219
16 *184:22 *186:26 0.000570831
17 *185:61 *186:14 9.28078e-06
*RES
1 *1047:X *186:14 48.166 
2 *186:14 *186:26 36.2584 
3 *186:26 *1052:A2 38 
*END

*D_NET *187 0.0224767
*CONN
*I *1052:A3 I *D sky130_fd_sc_hd__a32o_4
*I *1048:Y O *D sky130_fd_sc_hd__nand2_1
*CAP
1 *1052:A3 0
2 *1048:Y 0.000616693
3 *187:30 0.00391199
4 *187:16 0.00461002
5 *187:12 0.00131472
6 *187:12 *1040:A0 0.000179725
7 *187:16 *189:32 0.000208942
8 *187:16 *211:34 0.00158782
9 *187:16 *216:20 0
10 *187:16 *229:16 0.000103294
11 *187:30 *190:30 0.000207275
12 *187:30 *220:30 0.000358688
13 *187:30 *234:31 4.89546e-05
14 *1052:B1 *187:30 0.00123061
15 *1190:A *187:16 2.11066e-05
16 *3:21 *187:30 0.000849653
17 *27:16 *187:30 0.000116701
18 *45:24 *187:30 0.00036632
19 *94:6 *187:30 0.000107237
20 *116:96 *187:30 0
21 *117:26 *187:30 0
22 *123:59 *187:12 5.72739e-05
23 *147:16 *187:12 6.17437e-06
24 *147:28 *187:30 5.77695e-05
25 *154:30 *187:30 0.000867724
26 *158:10 *187:16 0.00268053
27 *163:18 *187:30 2.05503e-05
28 *168:55 *187:16 0.000846999
29 *182:24 *187:30 0.000335491
30 *183:8 *187:30 0.00012144
31 *183:10 *187:30 0
32 *183:22 *187:30 0.001472
33 *184:22 *187:30 3.71198e-05
34 *185:36 *187:12 5.56356e-05
35 *186:26 *187:30 7.82491e-05
*RES
1 *1048:Y *187:12 45.9336 
2 *187:12 *187:16 49.5218 
3 *187:16 *187:30 40.5935 
4 *187:30 *1052:A3 38 
*END

*D_NET *188 0.0121648
*CONN
*I *1050:A0 I *D sky130_fd_sc_hd__mux2_1
*I *1049:Y O *D sky130_fd_sc_hd__inv_2
*CAP
1 *1050:A0 6.26469e-05
2 *1049:Y 0.000106597
3 *188:18 0.00100166
4 *188:14 0.00334592
5 *188:10 0.0025135
6 *188:10 *208:36 7.68979e-05
7 *188:10 *256:18 0.000102389
8 *188:18 *212:58 6.8999e-05
9 seg[0] *188:18 1.20476e-05
10 seg[1] *188:18 1.27424e-05
11 *953:A2 *188:10 1.61989e-05
12 *1031:B *188:10 0.000100061
13 *1042:A3 *188:14 6.23934e-05
14 *1050:A1 *1050:A0 5.3304e-05
15 *1105:C *188:18 0.00021286
16 *76:32 *188:18 0.000100016
17 *97:60 *188:14 9.66668e-05
18 *100:77 *1050:A0 2.33679e-05
19 *100:77 *188:18 6.13529e-05
20 *105:10 *188:18 0
21 *118:80 *188:14 0.000183295
22 *118:80 *188:18 0.00148422
23 *120:88 *188:14 0.000311261
24 *120:105 *188:14 0.000348829
25 *128:12 *188:18 0.000437505
26 *128:20 *188:18 6.43464e-06
27 *150:60 *188:14 0.000882197
28 *166:28 *188:18 0.000461124
29 *180:76 *188:14 2.02872e-05
*RES
1 *1049:Y *188:10 40.2993 
2 *188:10 *188:14 46.5893 
3 *188:14 *188:18 41.9079 
4 *188:18 *1050:A0 39.0979 
*END

*D_NET *189 0.0351981
*CONN
*I *1051:A1 I *D sky130_fd_sc_hd__mux2_1
*I *1050:X O *D sky130_fd_sc_hd__mux2_1
*CAP
1 *1051:A1 0
2 *1050:X 0.000201724
3 *189:32 0.0120323
4 *189:14 0.012234
5 *189:14 *206:18 7.11427e-05
6 *189:14 *212:58 0
7 *189:14 *260:40 1.79572e-05
8 *189:32 *190:12 0.000150918
9 *189:32 *200:14 6.23031e-05
10 *189:32 *211:18 1.74575e-06
11 *189:32 *211:34 0.000203232
12 *189:32 *212:58 0.000101554
13 *967:A *189:14 2.64616e-05
14 *17:8 *189:14 0.000111106
15 *70:32 *189:32 0.00636944
16 *76:38 *189:14 0.000226513
17 *80:36 *189:32 0.00159019
18 *133:21 *189:32 0.000271996
19 *139:35 *189:32 0.000271996
20 *147:10 *189:32 0.000210277
21 *152:24 *189:32 0.000383939
22 *163:51 *189:32 0
23 *168:55 *189:32 0.000450342
24 *187:16 *189:32 0.000208942
*RES
1 *1050:X *189:14 49.8586 
2 *189:14 *189:32 40.4413 
3 *189:32 *1051:A1 38 
*END

*D_NET *190 0.0276628
*CONN
*I *1052:B2 I *D sky130_fd_sc_hd__a32o_4
*I *1051:X O *D sky130_fd_sc_hd__mux2_1
*CAP
1 *1052:B2 0
2 *1051:X 0.000551165
3 *190:30 0.00870665
4 *190:12 0.00925782
5 *190:12 *200:14 2.91112e-05
6 *190:12 *211:18 0.000151183
7 *190:12 *239:159 0
8 *190:12 *266:51 2.55744e-05
9 *190:30 *198:16 4.37255e-05
10 *190:30 *203:22 0.000239255
11 *190:30 *205:40 0.000282382
12 *190:30 *216:20 0.000890217
13 *190:30 *221:43 0.00217357
14 *190:30 *236:110 5.14566e-05
15 *190:30 *250:8 0.000331974
16 *190:30 *259:14 0.000136649
17 *190:30 *260:46 2.4387e-05
18 *190:30 *271:20 0.000342859
19 *70:32 *190:30 0.00341499
20 *77:160 *190:30 0
21 *80:36 *190:30 0
22 *112:57 *190:30 9.28078e-06
23 *117:26 *190:30 0.000322628
24 *153:12 *190:12 2.08572e-05
25 *166:16 *190:30 0.000285858
26 *183:30 *190:30 1.30346e-05
27 *187:30 *190:30 0.000207275
28 *189:32 *190:12 0.000150918
*RES
1 *1051:X *190:12 48.859 
2 *190:12 *190:30 44.422 
3 *190:30 *1052:B2 38 
*END

*D_NET *191 0.0420706
*CONN
*I *1066:A I *D sky130_fd_sc_hd__inv_2
*I *1078:A1 I *D sky130_fd_sc_hd__o31ai_2
*I *1064:A I *D sky130_fd_sc_hd__nor2_1
*I *1079:B1 I *D sky130_fd_sc_hd__a211o_1
*I *1150:A1 I *D sky130_fd_sc_hd__mux2_1
*I *1126:A0 I *D sky130_fd_sc_hd__mux2_1
*I *1113:A1 I *D sky130_fd_sc_hd__mux2_1
*I *1091:A1 I *D sky130_fd_sc_hd__mux2_1
*I *1052:X O *D sky130_fd_sc_hd__a32o_4
*CAP
1 *1066:A 0
2 *1078:A1 0.000675608
3 *1064:A 0
4 *1079:B1 0
5 *1150:A1 0.000120304
6 *1126:A0 0
7 *1113:A1 0
8 *1091:A1 0
9 *1052:X 6.47024e-05
10 *191:177 0.000568036
11 *191:142 0.000496931
12 *191:128 0.00131844
13 *191:124 0.00149712
14 *191:122 0.000826813
15 *191:97 0.00160316
16 *191:87 0.000921888
17 *191:79 0.0015914
18 *191:64 0.000122725
19 *191:54 0.00254002
20 *191:34 0.00113876
21 *191:26 0.00273444
22 *191:16 0.00207441
23 *191:8 0.00220322
24 *1078:A1 *1078:A2 0.00028214
25 *1078:A1 *202:14 8.16442e-05
26 *1150:A1 *201:16 4.5051e-05
27 *191:16 *197:48 0
28 *191:16 *234:31 0.00018663
29 *191:16 *236:100 0.000254614
30 *191:16 *252:10 8.81675e-05
31 *191:26 *220:30 0.000219962
32 *191:34 *1091:A0 5.56356e-05
33 *191:34 *220:6 9.25435e-05
34 *191:34 *238:22 0.000184009
35 *191:34 *253:14 0.000113748
36 *191:54 *257:49 0.000238575
37 *191:64 *234:73 9.86551e-06
38 *191:79 *1117:D_N 2.55744e-05
39 *191:79 *236:134 2.50538e-05
40 *191:79 *238:62 8.43956e-05
41 *191:79 *257:37 0.0002602
42 *191:79 *257:49 0.000149208
43 *191:87 *209:63 1.00806e-05
44 *191:87 *234:8 4.30894e-05
45 *191:87 *234:16 8.11914e-06
46 *191:87 *234:91 0.000158289
47 *191:87 *247:44 0.000126137
48 *191:97 *192:22 0.000489264
49 *191:97 *198:24 0.000315104
50 *191:97 *201:16 2.38602e-06
51 *191:97 *209:63 0.000231938
52 *191:97 *232:25 6.06542e-05
53 *191:122 *1186:A 0.000130591
54 *191:122 *201:52 0.000222715
55 *191:122 *230:86 3.74066e-05
56 *191:122 *230:96 5.64492e-05
57 *191:122 *232:25 6.17437e-06
58 *191:122 *236:39 0.000389027
59 *191:122 *242:10 1.27489e-05
60 *191:128 *1064:B 0.000774031
61 *191:128 *202:14 0.00123673
62 *191:128 *252:48 2.20564e-05
63 *191:142 *204:75 0.000292626
64 *191:142 *208:106 4.36157e-05
65 *191:142 *228:24 0.000142698
66 *191:142 *252:48 9.5148e-05
67 *191:177 *234:163 0.000502835
68 *191:177 *237:63 5.43589e-05
69 *191:177 *257:37 0.000341283
70 *1011:A2 *191:26 5.12254e-05
71 *1019:B *191:34 5.58003e-05
72 *1039:A2 *191:97 4.96207e-05
73 *1046:A *191:26 0.000126363
74 *1052:A1 *191:8 9.90115e-05
75 *1073:A *191:142 1.32308e-05
76 *1122:A0 *191:34 0.000138607
77 *1150:S *1150:A1 0.000255306
78 *1150:S *191:97 5.3304e-05
79 *1150:S *191:122 0.00020878
80 *1160:D *191:142 0.000144668
81 *31:10 *191:8 9.90115e-05
82 *31:14 *1150:A1 5.80848e-05
83 *31:14 *191:122 0.000192884
84 *31:26 *191:122 0.000137651
85 *40:22 *191:64 0.000125405
86 *41:22 *191:64 7.57281e-06
87 *41:22 *191:79 0.0002602
88 *41:22 *191:177 0.000303628
89 *45:24 *191:54 0.00100969
90 *46:24 *191:128 0.00132132
91 *46:24 *191:142 8.75357e-05
92 *49:51 *191:122 0.000152294
93 *49:110 *191:16 9.80703e-06
94 *49:110 *191:26 8.68882e-05
95 *53:10 *191:26 0.00044778
96 *53:14 *191:26 0.000527733
97 *54:8 *191:128 0.000342939
98 *55:14 *191:16 0.000139342
99 *56:12 *191:16 5.3304e-05
100 *59:10 *191:34 6.70717e-05
101 *71:43 *191:122 0.000120273
102 *77:109 *191:87 0.000316091
103 *78:30 *191:54 0.0002354
104 *78:30 *191:79 1.09832e-05
105 *81:72 *191:79 0.000192848
106 *93:43 *191:122 5.00753e-05
107 *95:73 *191:177 0.000502835
108 *104:16 *191:142 0.000135951
109 *116:128 *1078:A1 0.000357577
110 *119:40 *1078:A1 0.000112344
111 *121:73 *191:64 5.97282e-05
112 *130:39 *191:142 4.06926e-05
113 *131:32 *191:54 2.47699e-05
114 *150:10 *191:26 5.67058e-05
115 *155:22 *191:34 0.000354651
116 *157:32 *191:34 0.00177148
117 *158:8 *191:34 0.000574756
118 *161:32 *191:142 8.42414e-06
119 *171:36 *1150:A1 0.000137368
120 *171:36 *191:97 4.3271e-05
121 *174:73 *191:122 0.000197885
122 *174:83 *191:122 0.000418291
123 *178:14 *191:97 5.3304e-05
124 *182:24 *191:54 8.77734e-05
125 *183:8 *191:26 5.50106e-05
126 *183:10 *191:26 0.000396624
127 *185:36 *191:142 9.50086e-05
128 *186:26 *191:54 0.000333896
*RES
1 *1052:X *191:8 40.0507 
2 *191:8 *191:16 24.0521 
3 *191:16 *191:26 49.4064 
4 *191:26 *191:34 43.42 
5 *191:34 *1091:A1 23 
6 *191:16 *1113:A1 23 
7 *191:8 *191:54 20.1832 
8 *191:54 *191:64 31.5917 
9 *191:64 *1126:A0 23 
10 *191:54 *191:79 21.0988 
11 *191:79 *191:87 35.7379 
12 *191:87 *191:97 42.6979 
13 *191:97 *1150:A1 41.3764 
14 *191:97 *191:122 49.2229 
15 *191:122 *191:124 15 
16 *191:124 *191:128 23.9871 
17 *191:128 *191:142 42.123 
18 *191:142 *1079:B1 23 
19 *191:128 *1064:A 23 
20 *191:124 *1078:A1 33.8336 
21 *191:79 *191:177 27.76 
22 *191:177 *1066:A 23 
*END

*D_NET *192 0.00700336
*CONN
*I *1056:A2 I *D sky130_fd_sc_hd__o211ai_1
*I *1053:X O *D sky130_fd_sc_hd__or2_1
*CAP
1 *1056:A2 0
2 *1053:X 0.00041681
3 *192:22 0.00118969
4 *192:18 0.00150156
5 *192:10 0.000728675
6 *192:10 *232:25 0.000151723
7 *192:10 *247:36 2.33476e-05
8 *192:10 *259:71 6.46789e-05
9 *192:10 *261:14 4.94766e-06
10 *192:18 *227:53 7.14493e-05
11 *192:18 *234:91 8.29713e-05
12 *192:18 *234:93 4.44329e-05
13 *192:18 *234:95 0.000263534
14 *192:18 *236:49 9.57076e-05
15 *192:18 *244:8 6.17437e-06
16 *192:22 *198:24 4.03352e-05
17 *83:42 *192:18 0.000132743
18 *84:46 *192:22 0.000543701
19 *84:128 *192:22 0.000300834
20 *103:43 *192:10 0.000180161
21 *145:73 *192:10 0.000362659
22 *148:8 *192:10 0.000307963
23 *191:97 *192:22 0.000489264
*RES
1 *1053:X *192:10 47.3836 
2 *192:10 *192:18 36.3386 
3 *192:18 *192:22 30.8671 
4 *192:22 *1056:A2 23 
*END

*D_NET *193 0.00770253
*CONN
*I *1056:B1 I *D sky130_fd_sc_hd__o211ai_1
*I *1054:X O *D sky130_fd_sc_hd__or2_1
*CAP
1 *1056:B1 0.000260876
2 *1054:X 0
3 *193:8 0.0017346
4 *193:6 0.00147373
5 *1056:B1 *1056:C1 5.3304e-05
6 *193:8 *207:18 0.000492106
7 *193:8 *223:18 0.000746866
8 *193:8 *226:10 1.05658e-05
9 *193:8 *239:109 0.000642471
10 *193:8 *263:84 6.82235e-05
11 *193:8 *266:51 2.33476e-05
12 *56:26 *193:8 7.5047e-05
13 *57:22 *193:8 0.000318786
14 *57:36 *193:8 0.000427696
15 *82:135 *193:8 8.43625e-05
16 *82:154 *193:8 0.000398019
17 *84:128 *1056:B1 0.000187062
18 *86:12 *193:8 0.000287593
19 *108:65 *193:8 2.26122e-05
20 *109:64 *193:8 7.22049e-05
21 *130:84 *1056:B1 0.000178235
22 *155:126 *193:8 0.000110341
23 *167:38 *193:8 3.44786e-05
*RES
1 *1054:X *193:6 38 
2 *193:6 *193:8 36.0636 
3 *193:8 *1056:B1 42.9093 
*END

*D_NET *194 0.0100724
*CONN
*I *1056:C1 I *D sky130_fd_sc_hd__o211ai_1
*I *1055:X O *D sky130_fd_sc_hd__o31a_1
*CAP
1 *1056:C1 0.00016288
2 *1055:X 0.000283379
3 *194:10 0.00185632
4 *194:8 0.00197682
5 *194:8 *1055:A2 9.22512e-05
6 *194:10 *221:33 0.00169441
7 *194:10 *235:60 0.00105269
8 *194:10 *251:86 0
9 *194:10 *267:14 0.00155534
10 *1041:S *194:10 0.000155087
11 *1055:A3 *194:8 0.000100477
12 *1056:B1 *1056:C1 5.3304e-05
13 *65:18 *194:10 4.18023e-05
14 *81:12 *194:10 2.33476e-05
15 *84:22 *194:10 0
16 *84:128 *1056:C1 0.000342939
17 *110:78 *194:10 0.000485827
18 *112:30 *1056:C1 2.93335e-05
19 *112:41 *1056:C1 5.62243e-05
20 *123:80 *194:10 0.000109959
*RES
1 *1055:X *194:8 41.9564 
2 *194:8 *194:10 41.3457 
3 *194:10 *1056:C1 41.9564 
*END

*D_NET *195 0.00615644
*CONN
*I *1057:A I *D sky130_fd_sc_hd__dlymetal6s2s_1
*I *1056:Y O *D sky130_fd_sc_hd__o211ai_1
*CAP
1 *1057:A 0
2 *1056:Y 0.00100532
3 *195:12 0.000477324
4 *195:6 0.00148264
5 *195:12 *224:12 0.00108473
6 *195:12 *260:18 0.000299187
7 *195:12 *260:63 0.000210455
8 *17:8 *195:12 8.4047e-05
9 *84:128 *195:6 0.000672484
10 *105:10 *195:12 0.000288088
11 *118:59 *195:6 1.56542e-05
12 *118:63 *195:6 0.000479315
13 *144:18 *195:12 5.71993e-05
*RES
1 *1056:Y *195:6 36.485 
2 *195:6 *195:12 45.9914 
3 *195:12 *1057:A 23 
*END

*D_NET *196 0.0251726
*CONN
*I *1095:A1 I *D sky130_fd_sc_hd__o21a_1
*I *1094:A1 I *D sky130_fd_sc_hd__a21oi_1
*I *1062:A2 I *D sky130_fd_sc_hd__a31o_2
*I *1057:X O *D sky130_fd_sc_hd__dlymetal6s2s_1
*CAP
1 *1095:A1 0
2 *1094:A1 0
3 *1062:A2 0
4 *1057:X 0.00145067
5 *196:54 0.000367338
6 *196:41 0.0028231
7 *196:31 0.00344023
8 *196:22 0.000878098
9 *196:16 0.00116662
10 *196:12 0.00148941
11 *196:12 *197:14 0.000137533
12 *196:22 *201:6 5.3304e-05
13 *196:22 *230:77 0.000408442
14 *196:31 *1100:A_N 0.000354747
15 *196:31 *245:14 5.22242e-05
16 *196:41 *1100:A_N 0.000149058
17 *196:41 *198:44 0.0018766
18 *196:41 *198:54 0.000189849
19 *196:41 *245:14 4.84113e-05
20 *196:54 *1095:A2 0.000177107
21 *196:54 *223:10 0.000181794
22 *196:54 *256:22 0.000193559
23 *196:54 *257:18 0.000394618
24 *1047:A *196:12 2.21792e-05
25 *1093:A2 *196:12 1.59094e-05
26 *1094:B1 *196:41 0.000966777
27 *39:24 *196:41 2.00759e-06
28 *43:32 *196:41 9.65021e-05
29 *56:14 *196:22 2.15619e-05
30 *56:26 *196:31 0.00010895
31 *84:38 *196:22 8.72309e-05
32 *88:54 *196:41 8.99145e-06
33 *90:100 *196:41 3.3405e-05
34 *96:36 *196:41 2.05503e-05
35 *106:37 *196:41 2.77638e-05
36 *106:95 *196:41 0.000350835
37 *112:30 *196:22 0.000853164
38 *112:91 *196:16 6.0808e-05
39 *112:91 *196:22 0.000428517
40 *119:30 *196:41 0.00040009
41 *123:22 *196:41 2.05503e-05
42 *155:94 *196:16 6.85548e-05
43 *155:94 *196:22 0.000307907
44 *158:14 *196:41 0.00176815
45 *159:18 *196:54 4.05745e-05
46 *173:30 *196:41 0.00218847
47 *178:71 *196:12 0.00110415
48 *179:32 *196:22 0.000286015
49 *186:14 *196:12 5.03097e-05
*RES
1 *1057:X *196:12 45.1229 
2 *196:12 *196:16 16.0254 
3 *196:16 *196:22 34.6268 
4 *196:22 *1062:A2 23 
5 *196:16 *196:31 8.74293 
6 *196:31 *196:41 49.0663 
7 *196:41 *1094:A1 23 
8 *196:31 *196:54 31.0061 
9 *196:54 *1095:A1 23 
*END

*D_NET *197 0.0207687
*CONN
*I *1059:A I *D sky130_fd_sc_hd__dlymetal6s2s_1
*I *1058:X O *D sky130_fd_sc_hd__and4_1
*CAP
1 *1059:A 0
2 *1058:X 0.00056514
3 *197:48 0.00039092
4 *197:36 0.00276945
5 *197:28 0.00267457
6 *197:22 0.000996018
7 *197:14 0.00116954
8 *197:6 0.00103471
9 *197:6 *256:28 0.00113342
10 *197:14 *218:10 0.000201561
11 *197:22 *218:10 0.000988284
12 *197:22 *238:70 0.000136738
13 *197:28 *218:10 0.00011687
14 *197:36 *215:20 7.4361e-05
15 *197:36 *216:14 0
16 *197:36 *218:10 4.30894e-05
17 *197:48 *205:40 0.000193182
18 *197:48 *252:10 7.07867e-05
19 *197:48 *260:46 5.31466e-05
20 *45:24 *197:36 0.000178479
21 *50:10 *197:22 0.00017912
22 *60:22 *197:36 0
23 *64:66 *197:28 0.000387095
24 *64:66 *197:36 4.33608e-05
25 *73:16 *197:22 0.000570377
26 *78:118 *197:36 0.000637909
27 *86:12 *197:14 0.000556537
28 *88:70 *197:14 0.000106452
29 *88:70 *197:28 5.94125e-05
30 *98:79 *197:6 0.000270951
31 *98:91 *197:6 0.000128779
32 *100:63 *197:36 0.000138271
33 *101:8 *197:36 0.000578592
34 *101:20 *197:36 0.000170553
35 *122:56 *197:6 1.56542e-05
36 *122:62 *197:6 0.00122014
37 *125:59 *197:36 0
38 *127:37 *197:36 0
39 *130:76 *197:28 4.60157e-05
40 *143:16 *197:36 0.000192087
41 *150:83 *197:6 0.000359447
42 *166:16 *197:36 0.00153516
43 *166:16 *197:48 0.000195169
44 *175:37 *197:36 0.000449813
45 *176:16 *197:36 0
46 *191:16 *197:48 0
47 *196:12 *197:14 0.000137533
*RES
1 *1058:X *197:6 41.7257 
2 *197:6 *197:14 39.4664 
3 *197:14 *197:22 45.805 
4 *197:22 *197:28 21.2246 
5 *197:28 *197:36 49.4048 
6 *197:36 *197:48 35.387 
7 *197:48 *1059:A 23 
*END

*D_NET *198 0.027931
*CONN
*I *1062:A3 I *D sky130_fd_sc_hd__a31o_2
*I *1095:A2 I *D sky130_fd_sc_hd__o21a_1
*I *1094:A2 I *D sky130_fd_sc_hd__a21oi_1
*I *1059:X O *D sky130_fd_sc_hd__dlymetal6s2s_1
*CAP
1 *1062:A3 0.00027505
2 *1095:A2 0.000496976
3 *1094:A2 0
4 *1059:X 9.84949e-05
5 *198:54 0.00152619
6 *198:44 0.00395248
7 *198:28 0.00382016
8 *198:24 0.00155106
9 *198:16 0.00171177
10 *198:10 0.00143116
11 *1062:A3 *201:6 4.21378e-05
12 *1062:A3 *201:16 0.000143564
13 *1095:A2 *1100:A_N 2.11157e-05
14 *1095:A2 *223:10 2.18286e-05
15 *1095:A2 *256:22 0.000216098
16 *1095:A2 *257:18 3.7473e-07
17 *198:10 *1164:CLK 0.000190871
18 *198:10 *236:110 0.000272372
19 *198:16 *234:16 0
20 *198:16 *234:31 0
21 *198:16 *236:69 2.63945e-05
22 *198:16 *259:14 0.00079516
23 *198:16 *260:46 8.20653e-05
24 *198:24 *201:16 0.000164089
25 *198:24 *209:63 0.000148169
26 *198:24 *236:49 2.38286e-05
27 *198:24 *236:69 3.63653e-05
28 *198:28 *209:63 0
29 *198:28 *234:8 1.33899e-05
30 *198:28 *234:91 5.3316e-05
31 *198:28 *237:63 0.000169981
32 *198:28 *263:46 1.66113e-05
33 *198:28 *268:24 0.000115342
34 *198:28 *268:30 0.000257274
35 *198:28 *268:41 0.00021401
36 *198:44 *227:71 2.26497e-05
37 *1052:B1 *198:16 4.89546e-05
38 *1094:B1 *198:54 0.000966966
39 *24:24 *198:24 7.21606e-05
40 *35:14 *198:16 0.000932744
41 *41:22 *198:28 4.78361e-05
42 *43:32 *198:54 9.64943e-05
43 *57:50 *198:16 0
44 *77:109 *198:28 0
45 *83:42 *198:16 0.000693712
46 *83:82 *198:28 4.34007e-05
47 *83:94 *198:28 6.48561e-05
48 *84:46 *1062:A3 0.000504541
49 *84:46 *198:24 5.3304e-05
50 *84:46 *198:28 3.18198e-05
51 *84:67 *198:24 6.56284e-05
52 *84:128 *1062:A3 4.17736e-05
53 *96:36 *198:54 0.000120384
54 *98:104 *1095:A2 0
55 *106:37 *1095:A2 0
56 *106:95 *198:54 0.000339723
57 *112:30 *1062:A3 0.000169575
58 *112:57 *198:16 1.68367e-05
59 *116:60 *198:44 0.000889461
60 *116:78 *198:44 0.000239668
61 *118:14 *198:16 0
62 *119:30 *1095:A2 2.03802e-05
63 *123:22 *198:54 0.000118023
64 *127:53 *1095:A2 3.32202e-05
65 *127:53 *198:28 0.000214505
66 *127:53 *198:44 0.000270127
67 *150:83 *1095:A2 1.69068e-05
68 *156:18 *198:16 9.50737e-05
69 *158:14 *198:54 1.358e-05
70 *158:26 *198:28 7.9676e-05
71 *159:18 *1095:A2 0.000142173
72 *165:16 *198:28 0
73 *178:38 *198:44 0.000913853
74 *178:67 *1095:A2 0
75 *178:67 *198:28 0
76 *178:67 *198:44 2.05503e-05
77 *190:30 *198:16 4.37255e-05
78 *191:97 *198:24 0.000315104
79 *192:22 *198:24 4.03352e-05
80 *196:41 *198:44 0.0018766
81 *196:41 *198:54 0.000189849
82 *196:54 *1095:A2 0.000177107
*RES
1 *1059:X *198:10 41.5007 
2 *198:10 *198:16 42.1979 
3 *198:16 *198:24 38.9279 
4 *198:24 *198:28 30.9914 
5 *198:28 *198:44 47.0702 
6 *198:44 *198:54 45.7339 
7 *198:54 *1094:A2 23 
8 *198:28 *1095:A2 46.41 
9 *198:24 *1062:A3 29.8357 
*END

*D_NET *199 0.00383857
*CONN
*I *1061:B1 I *D sky130_fd_sc_hd__a21oi_1
*I *1060:X O *D sky130_fd_sc_hd__clkbuf_1
*CAP
1 *1061:B1 0
2 *1060:X 0.000250821
3 *199:14 0.0012119
4 *199:8 0.00146272
5 *968:A *199:8 4.88501e-05
6 *1061:A1 *199:14 0.000505822
7 *122:35 *199:8 0.000160888
8 *130:39 *199:8 5.37358e-05
9 *170:43 *199:14 0.00014384
*RES
1 *1060:X *199:8 42.0186 
2 *199:8 *199:14 32.6693 
3 *199:14 *1061:B1 23 
*END

*D_NET *200 0.0219389
*CONN
*I *1062:B1 I *D sky130_fd_sc_hd__a31o_2
*I *1061:Y O *D sky130_fd_sc_hd__a21oi_1
*CAP
1 *1062:B1 0
2 *1061:Y 0.000413154
3 *200:28 0.00593234
4 *200:14 0.00634549
5 *200:14 *238:12 2.46922e-05
6 *200:14 *266:51 2.79705e-05
7 *200:28 *235:54 0.00137883
8 *200:28 *251:86 0.000236825
9 *200:28 *254:45 2.16394e-05
10 *200:28 *265:53 0.000207227
11 *200:28 *266:51 0.00104429
12 *200:28 *271:68 0.000158963
13 *1061:A1 *200:28 0.000141828
14 *42:10 *200:14 2.26406e-05
15 *46:20 *200:28 0.00283393
16 *64:30 *200:28 4.94803e-05
17 *65:18 *200:28 0.000572452
18 *80:36 *200:28 4.76944e-05
19 *83:20 *200:28 0.00076198
20 *95:91 *200:28 0
21 *98:30 *200:28 0.0006617
22 *109:85 *200:28 0
23 *110:78 *200:28 1.66725e-05
24 *127:37 *200:28 5.84015e-05
25 *142:8 *200:28 0.00020009
26 *154:18 *200:28 4.62763e-05
27 *163:51 *200:14 0.000171149
28 *163:51 *200:28 0.000386131
29 *181:26 *200:28 8.56214e-05
30 *189:32 *200:14 6.23031e-05
31 *190:12 *200:14 2.91112e-05
*RES
1 *1061:Y *200:14 47.5475 
2 *200:14 *200:28 43.8554 
3 *200:28 *1062:B1 38 
*END

*D_NET *201 0.0318447
*CONN
*I *1070:A2 I *D sky130_fd_sc_hd__a21oi_2
*I *1107:A1 I *D sky130_fd_sc_hd__mux2_1
*I *1075:A2 I *D sky130_fd_sc_hd__a21o_1
*I *1144:A1 I *D sky130_fd_sc_hd__mux2_1
*I *1120:A0 I *D sky130_fd_sc_hd__mux2_1
*I *1063:B I *D sky130_fd_sc_hd__nor2_1
*I *1074:A3 I *D sky130_fd_sc_hd__o31ai_1
*I *1077:B1 I *D sky130_fd_sc_hd__a211o_1
*I *1085:A1 I *D sky130_fd_sc_hd__mux2_1
*I *1062:X O *D sky130_fd_sc_hd__a31o_2
*CAP
1 *1070:A2 0
2 *1107:A1 0
3 *1075:A2 0
4 *1144:A1 0
5 *1120:A0 0
6 *1063:B 0.000125316
7 *1074:A3 0
8 *1077:B1 0.000141251
9 *1085:A1 5.21494e-05
10 *1062:X 0.000102768
11 *201:145 0.00013497
12 *201:134 8.71204e-05
13 *201:116 4.04166e-05
14 *201:110 0.0012049
15 *201:100 0.0020307
16 *201:92 0.00154478
17 *201:90 0.00119802
18 *201:80 0.000622515
19 *201:72 0.00149559
20 *201:52 0.000634828
21 *201:33 0.000817392
22 *201:16 0.00141519
23 *201:6 0.00264387
24 *1063:B *206:57 3.20202e-05
25 *1063:B *230:61 5.61255e-06
26 *1077:B1 *1077:A1 8.69132e-05
27 *1077:B1 *1077:C1 1.69538e-05
28 *1085:A1 *216:64 5.56356e-05
29 *1085:A1 *258:10 8.06804e-06
30 *1085:A1 *270:30 0.000138607
31 *201:16 *209:63 0.000417382
32 *201:16 *232:25 4.54699e-05
33 *201:16 *270:30 0.000207902
34 *201:33 *216:64 2.50783e-05
35 *201:33 *258:10 5.3304e-05
36 *201:33 *258:20 3.33144e-05
37 *201:33 *270:30 0
38 *201:52 *230:86 1.05984e-05
39 *201:52 *234:95 6.17437e-06
40 *201:52 *234:112 2.69859e-05
41 *201:52 *244:8 9.58714e-05
42 *201:72 *1078:B1 0.000268495
43 *201:72 *206:47 0.000366872
44 *201:72 *225:10 0.000101536
45 *201:72 *237:78 7.05024e-05
46 *201:72 *257:37 8.96389e-05
47 *201:80 *263:18 8.48502e-06
48 *201:90 *208:73 0
49 *201:90 *236:207 0.000130971
50 *201:90 *263:18 0.000114166
51 *201:90 *271:68 0
52 *201:92 *236:194 3.60531e-05
53 *201:92 *236:207 0.000706795
54 *201:100 *207:32 0.000443937
55 *201:100 *208:81 0.00049756
56 *201:100 *236:194 0.000288652
57 *201:100 *254:45 1.66725e-05
58 *201:100 *267:38 7.1016e-05
59 *201:100 *271:43 0.00131588
60 *201:100 *271:68 0.000224411
61 *201:110 *1161:CLK 0.000649592
62 *201:110 *208:81 8.05141e-05
63 *201:110 *254:10 1.58785e-05
64 *201:110 *254:45 1.41472e-05
65 *201:110 *266:10 5.40337e-05
66 *201:110 *267:38 1.13812e-05
67 *201:134 *261:33 7.89883e-05
68 *201:145 *271:68 2.41718e-05
69 *959:A3 *201:110 0.000221997
70 *1039:A2 *201:16 2.43944e-05
71 *1062:A3 *201:6 4.21378e-05
72 *1062:A3 *201:16 0.000143564
73 *1063:A *1063:B 2.93104e-06
74 *1150:A1 *201:16 4.5051e-05
75 *1150:S *201:16 1.39668e-05
76 *1150:S *201:33 1.00493e-05
77 *1161:D *201:110 0.000109906
78 *29:38 *201:52 8.19237e-05
79 *31:34 *1063:B 1.59094e-05
80 *31:34 *201:52 0.00038998
81 *37:6 *201:110 0.000208956
82 *42:10 *201:116 0.000115526
83 *49:51 *201:33 4.02656e-05
84 *49:51 *201:52 0.000370096
85 *56:14 *201:72 0.00113972
86 *64:51 *201:100 2.9131e-05
87 *72:6 *201:110 0.00195256
88 *77:117 *201:72 0.000200926
89 *78:97 *201:90 0.000275576
90 *78:97 *201:145 0
91 *84:26 *201:72 5.14824e-05
92 *84:32 *201:72 0.000755135
93 *84:67 *201:16 0.000485228
94 *87:10 *201:110 4.49877e-05
95 *97:37 *201:134 8.10876e-05
96 *98:91 *201:80 2.02872e-05
97 *99:26 *201:33 0.000133516
98 *107:6 *201:100 0.00157885
99 *110:14 *201:100 3.7473e-07
100 *112:30 *201:6 9.58714e-05
101 *112:91 *201:72 1.45144e-05
102 *119:30 *201:72 2.41841e-05
103 *120:105 *201:72 0.000687552
104 *120:105 *201:80 5.50106e-05
105 *126:10 *1077:B1 4.67488e-05
106 *133:21 *201:116 0.000113244
107 *148:10 *201:52 4.09559e-05
108 *159:18 *201:72 1.83371e-05
109 *171:36 *201:16 0.000215818
110 *172:22 *1063:B 0.000137525
111 *174:83 *1077:B1 5.50106e-05
112 *174:108 *1077:B1 1.56446e-05
113 *177:18 *201:16 5.82853e-05
114 *191:97 *201:16 2.38602e-06
115 *191:122 *201:52 0.000222715
116 *196:22 *201:6 5.3304e-05
117 *198:24 *201:16 0.000164089
*RES
1 *1062:X *201:6 25.0507 
2 *201:6 *201:16 22.3921 
3 *201:16 *1085:A1 24.5743 
4 *201:16 *201:33 33.7286 
5 *201:33 *1077:B1 26.045 
6 *201:33 *201:52 40.5229 
7 *201:52 *1074:A3 23 
8 *201:52 *1063:B 26.2729 
9 *201:6 *201:72 45.7814 
10 *201:72 *201:80 17.5686 
11 *201:80 *201:90 37.6436 
12 *201:90 *201:92 8.72071 
13 *201:92 *201:100 43.8964 
14 *201:100 *201:110 45.45 
15 *201:110 *201:116 31.5536 
16 *201:116 *1120:A0 23 
17 *201:100 *1144:A1 38 
18 *201:92 *201:134 31.2014 
19 *201:134 *1075:A2 23 
20 *201:90 *201:145 31.9057 
21 *201:145 *1107:A1 23 
22 *201:80 *1070:A2 23 
*END

*D_NET *202 0.0116795
*CONN
*I *1078:A2 I *D sky130_fd_sc_hd__o31ai_2
*I *1071:A I *D sky130_fd_sc_hd__or2b_1
*I *1064:B I *D sky130_fd_sc_hd__nor2_1
*I *1063:Y O *D sky130_fd_sc_hd__nor2_1
*CAP
1 *1078:A2 0.000328049
2 *1071:A 0
3 *1064:B 0.000302393
4 *1063:Y 0.000119807
5 *202:27 0.000792267
6 *202:14 0.00163757
7 *202:10 0.000870957
8 *202:8 0.000119807
9 *1064:B *237:31 0.000222607
10 *1064:B *252:48 0.000162386
11 *1078:A2 *237:31 0.000135037
12 *1078:A2 *257:14 3.24141e-05
13 *1078:A2 *262:45 0.000578774
14 *202:14 *237:31 0.00063084
15 *202:27 *1071:B_N 5.20036e-05
16 *202:27 *233:12 1.81643e-05
17 *202:27 *262:8 8.23646e-05
18 *1078:A1 *1078:A2 0.00028214
19 *1078:A1 *202:14 8.16442e-05
20 *32:52 *202:14 0.000135037
21 *49:61 *202:8 0.000175209
22 *49:76 *202:8 1.05441e-05
23 *81:100 *202:27 0.000289279
24 *93:43 *202:8 0.000176178
25 *99:43 *202:14 9.41704e-05
26 *110:14 *202:27 0.00102059
27 *116:96 *202:27 0.000187863
28 *116:128 *1078:A2 9.68031e-05
29 *116:128 *202:14 9.89901e-05
30 *119:40 *1078:A2 2.2065e-05
31 *122:16 *1078:A2 5.56279e-05
32 *123:22 *202:27 2.9813e-05
33 *123:42 *202:27 0.000827392
34 *191:128 *1064:B 0.000774031
35 *191:128 *202:14 0.00123673
*RES
1 *1063:Y *202:8 40.61 
2 *202:8 *202:10 15 
3 *202:10 *202:14 16.8407 
4 *202:14 *1064:B 31.7207 
5 *202:14 *202:27 49.1607 
6 *202:27 *1071:A 23 
7 *202:10 *1078:A2 31.7414 
*END

*D_NET *203 0.0247287
*CONN
*I *1065:B I *D sky130_fd_sc_hd__xnor2_1
*I *1064:Y O *D sky130_fd_sc_hd__nor2_1
*CAP
1 *1065:B 0
2 *1064:Y 0.000435225
3 *203:30 0.000280907
4 *203:22 0.00351232
5 *203:10 0.00366664
6 *203:10 *207:46 0.00045576
7 *203:10 *252:48 9.41704e-05
8 *203:22 *204:28 4.81059e-05
9 *203:22 *216:14 0.00288831
10 *203:22 *216:20 0.0022967
11 *3:21 *203:22 0.00225425
12 *23:26 *203:22 0.00289174
13 *95:12 *203:22 4.51815e-05
14 *117:12 *203:22 0.00220077
15 *117:26 *203:22 0.0026664
16 *161:32 *203:10 0.000457898
17 *163:18 *203:22 0
18 *175:37 *203:22 0.000188935
19 *175:37 *203:30 6.10551e-06
20 *180:53 *203:30 0.000100069
21 *190:30 *203:22 0.000239255
*RES
1 *1064:Y *203:10 45.7575 
2 *203:10 *203:22 42.8123 
3 *203:22 *203:30 28.2925 
4 *203:30 *1065:B 23 
*END

*D_NET *204 0.0243149
*CONN
*I *1067:B I *D sky130_fd_sc_hd__nor2_2
*I *1076:A1 I *D sky130_fd_sc_hd__a31o_1
*I *1066:Y O *D sky130_fd_sc_hd__inv_2
*CAP
1 *1067:B 0
2 *1076:A1 0
3 *1066:Y 0.000979873
4 *204:75 0.000271456
5 *204:60 0.000662323
6 *204:44 0.00271645
7 *204:28 0.00492584
8 *204:12 0.00358012
9 *204:12 *230:77 0.000495854
10 *204:12 *251:86 9.85586e-06
11 *204:28 *252:40 0.00138511
12 *204:28 *269:53 0.000118405
13 *204:44 *230:26 0.000257766
14 *204:60 *205:61 1.22904e-05
15 *204:60 *209:18 5.04421e-05
16 *204:60 *230:26 2.05503e-05
17 *204:60 *249:14 0
18 *204:60 *249:33 0
19 *1000:A2 *204:60 4.67488e-05
20 *3:21 *204:28 0.000479826
21 *20:16 *204:44 0.000127194
22 *20:16 *204:75 6.25045e-05
23 *23:26 *204:28 4.8098e-05
24 *26:34 *204:44 0.000298616
25 *28:16 *204:60 1.0092e-05
26 *40:22 *204:44 2.44333e-05
27 *64:30 *204:28 3.65791e-05
28 *89:22 *204:12 0.00132063
29 *89:22 *204:28 0.00214106
30 *95:12 *204:28 0.000289113
31 *95:12 *204:44 2.82363e-05
32 *98:42 *204:28 0.00012361
33 *104:16 *204:75 0.000294791
34 *109:10 *204:60 0.000220736
35 *109:64 *204:12 0.000567994
36 *110:78 *204:12 2.05503e-05
37 *115:40 *204:28 0.000456131
38 *115:40 *204:44 0.000261467
39 *119:56 *204:28 7.23235e-05
40 *120:12 *204:44 0.000194915
41 *120:26 *204:44 0.000420059
42 *123:59 *204:75 0.000220592
43 *130:35 *204:44 7.58377e-05
44 *134:10 *204:44 0
45 *139:8 *204:60 7.21314e-05
46 *153:26 *204:60 0
47 *163:34 *204:28 0.000177349
48 *173:14 *204:44 0.000183616
49 *178:18 *204:28 0.000118405
50 *185:36 *204:75 9.41704e-05
51 *191:142 *204:75 0.000292626
52 *203:22 *204:28 4.81059e-05
*RES
1 *1066:Y *204:12 49.0819 
2 *204:12 *204:28 23.4947 
3 *204:28 *204:44 47.0997 
4 *204:44 *204:60 40.5643 
5 *204:60 *1076:A1 23 
6 *204:28 *204:75 30.2189 
7 *204:75 *1067:B 23 
*END

*D_NET *205 0.0291637
*CONN
*I *1077:C1 I *D sky130_fd_sc_hd__a211o_1
*I *1076:B1 I *D sky130_fd_sc_hd__a31o_1
*I *1068:A I *D sky130_fd_sc_hd__inv_2
*I *1067:Y O *D sky130_fd_sc_hd__nor2_2
*CAP
1 *1077:C1 0.000299114
2 *1076:B1 0
3 *1068:A 0
4 *1067:Y 0.000367261
5 *205:61 0.00054712
6 *205:49 0.00190573
7 *205:40 0.00197651
8 *205:24 0.00476616
9 *205:22 0.00370797
10 *205:10 0.00234508
11 *1077:C1 *1077:A1 5.56279e-05
12 *205:10 *207:46 0.000328141
13 *205:10 *210:26 6.92184e-05
14 *205:22 *212:30 0.000105656
15 *205:22 *253:29 0.000109277
16 *205:24 *217:16 5.0775e-05
17 *205:40 *220:30 0.00127348
18 *205:40 *240:10 2.33476e-05
19 *205:40 *252:20 4.96824e-05
20 *205:49 *269:6 0.000533886
21 *205:61 *211:34 5.73309e-05
22 *205:61 *233:59 0.000166911
23 *205:61 *249:14 0
24 *1077:B1 *1077:C1 1.69538e-05
25 *24:24 *205:22 0.00035862
26 *26:28 *205:24 4.74631e-05
27 *27:20 *205:49 0.000292299
28 *36:22 *205:24 0
29 *45:24 *205:40 6.53528e-05
30 *60:8 *205:61 8.78864e-05
31 *82:62 *205:49 0.00127774
32 *90:70 *205:22 0.000165963
33 *96:22 *205:24 0
34 *99:26 *205:24 0
35 *106:111 *205:22 0.000295788
36 *109:10 *205:61 5.56356e-05
37 *125:46 *1077:C1 0.000294376
38 *125:46 *205:24 0.000605414
39 *126:10 *1077:C1 1.59094e-05
40 *126:14 *205:24 5.95625e-06
41 *129:26 *1077:C1 0.000392574
42 *129:26 *205:24 0.00113004
43 *147:28 *205:49 0.000110155
44 *153:26 *205:61 0.000409494
45 *161:32 *205:10 1.44691e-05
46 *161:42 *205:22 0.00013704
47 *166:16 *205:40 0.00264711
48 *175:12 *205:22 0.000165074
49 *175:20 *205:10 0.000522084
50 *175:20 *205:22 0.000388776
51 *182:24 *205:40 0.000435374
52 *190:30 *205:40 0.000282382
53 *197:48 *205:40 0.000193182
54 *204:60 *205:61 1.22904e-05
*RES
1 *1067:Y *205:10 46.1614 
2 *205:10 *205:22 24.7144 
3 *205:22 *205:24 25.3232 
4 *205:24 *205:40 41.3486 
5 *205:40 *1068:A 23 
6 *205:24 *205:49 47.0657 
7 *205:49 *205:61 42.0971 
8 *205:61 *1076:B1 23 
9 *205:22 *1077:C1 45.1361 
*END

*D_NET *206 0.0213856
*CONN
*I *1080:A I *D sky130_fd_sc_hd__nand2_1
*I *1078:B1 I *D sky130_fd_sc_hd__o31ai_2
*I *1074:B1 I *D sky130_fd_sc_hd__o31ai_1
*I *1072:A I *D sky130_fd_sc_hd__nand2_1
*I *1068:Y O *D sky130_fd_sc_hd__inv_2
*CAP
1 *1080:A 0.000195917
2 *1078:B1 0.000345361
3 *1074:B1 0
4 *1072:A 0.000180248
5 *1068:Y 0.000271231
6 *206:57 0.00139318
7 *206:47 0.00197826
8 *206:34 0.00153571
9 *206:28 0.0020067
10 *206:18 0.00189899
11 *206:12 0.00108336
12 *1072:A *935:A 0.000222664
13 *1072:A *241:8 8.55622e-05
14 *1078:B1 *257:14 0.000488282
15 *1078:B1 *257:37 0.000341374
16 *1078:B1 *262:45 0.000612119
17 *206:12 *240:10 6.84987e-06
18 *206:18 *240:10 0
19 *206:18 *260:40 0.0014011
20 *206:28 *223:34 9.86662e-05
21 *206:28 *250:78 4.40292e-05
22 *206:34 *1128:A0 0.00105854
23 *206:34 *241:8 5.98704e-05
24 *206:47 *257:37 0.000366872
25 *206:57 *230:61 1.24376e-05
26 *206:57 *237:43 6.06323e-05
27 *206:57 *237:51 4.42081e-05
28 *206:57 *268:41 0.00022034
29 *988:C *206:18 0.000120398
30 *989:B_N *206:18 0
31 *1063:A *206:57 3.75407e-05
32 *1063:B *206:57 3.20202e-05
33 *1182:RESET_B *1080:A 1.32314e-05
34 *1182:RESET_B *206:28 0.00057038
35 *30:28 *206:12 7.87243e-05
36 *50:18 *1072:A 2.41378e-06
37 *63:28 *206:28 0.000168834
38 *76:38 *206:18 6.9188e-05
39 *77:6 *1072:A 0.000351297
40 *81:142 *1080:A 3.15669e-05
41 *81:142 *206:18 1.12796e-05
42 *81:142 *206:28 0.000303624
43 *84:128 *206:28 5.47103e-05
44 *84:147 *1080:A 0.000107682
45 *88:78 *206:28 0.000594275
46 *89:22 *206:28 0
47 *89:56 *206:18 0.000748114
48 *90:24 *206:28 7.55154e-05
49 *116:52 *1078:B1 2.02872e-05
50 *118:59 *206:28 0.000180083
51 *155:80 *206:57 0.000860899
52 *165:16 *206:57 9.92345e-05
53 *172:22 *206:57 1.6458e-05
54 *176:8 *1080:A 1.79293e-05
55 *180:31 *1080:A 9.67842e-05
56 *182:24 *206:18 4.15283e-06
57 *189:14 *206:18 7.11427e-05
58 *201:72 *1078:B1 0.000268495
59 *201:72 *206:47 0.000366872
*RES
1 *1068:Y *206:12 42.4225 
2 *206:12 *206:18 37.6511 
3 *206:18 *206:28 35.7557 
4 *206:28 *206:34 29.935 
5 *206:34 *1072:A 27.93 
6 *206:34 *206:47 20.4271 
7 *206:47 *206:57 34.865 
8 *206:57 *1074:B1 23 
9 *206:47 *1078:B1 48.8336 
10 *206:18 *1080:A 27.6193 
*END

*D_NET *207 0.0263064
*CONN
*I *1070:B1 I *D sky130_fd_sc_hd__a21oi_2
*I *1079:A2 I *D sky130_fd_sc_hd__a211o_1
*I *1069:Y O *D sky130_fd_sc_hd__inv_2
*CAP
1 *1070:B1 8.99556e-05
2 *1079:A2 0
3 *1069:Y 9.09647e-05
4 *207:46 0.000923408
5 *207:38 0.00137814
6 *207:32 0.00491333
7 *207:18 0.00592791
8 *207:8 0.00147033
9 *1070:B1 *208:8 5.40337e-05
10 *1070:B1 *208:36 7.07958e-05
11 *1070:B1 *263:18 5.40337e-05
12 *207:8 *223:18 4.96207e-05
13 *207:18 *223:18 0.000699054
14 *207:32 *219:20 0
15 *207:32 *247:88 0
16 *207:38 *267:38 6.17437e-06
17 *207:46 *233:143 0.000791991
18 *207:46 *233:176 0.000205152
19 *207:46 *233:189 0.000174256
20 *954:B_N *207:32 0
21 *1015:C *207:32 0.000188542
22 *1029:B1_N *207:18 3.55887e-05
23 *39:24 *207:18 0.000439619
24 *46:20 *207:18 0.00157717
25 *46:20 *207:32 8.64901e-05
26 *64:51 *207:32 7.22953e-05
27 *69:14 *207:46 3.93904e-06
28 *82:162 *207:18 2.19581e-05
29 *82:177 *207:32 0.000121551
30 *83:113 *207:18 5.23981e-05
31 *90:100 *207:32 0.000479857
32 *93:10 *207:32 0.000715623
33 *93:16 *207:38 0.000820202
34 *93:37 *207:38 4.21048e-05
35 *95:91 *207:18 8.76626e-06
36 *97:10 *207:18 3.85883e-05
37 *106:80 *207:46 0.000834148
38 *108:65 *207:18 0.00013581
39 *110:14 *207:32 8.30566e-06
40 *121:18 *207:18 0.000467761
41 *128:44 *207:18 0.0010347
42 *128:44 *207:32 9.39667e-05
43 *146:28 *207:32 0.000108194
44 *161:32 *207:46 0.000158264
45 *167:38 *207:18 0.000120903
46 *175:20 *207:46 2.0576e-05
47 *193:8 *207:18 0.000492106
48 *201:100 *207:32 0.000443937
49 *203:10 *207:46 0.00045576
50 *205:10 *207:46 0.000328141
*RES
1 *1069:Y *207:8 39.0979 
2 *207:8 *207:18 29.8418 
3 *207:18 *207:32 46.3637 
4 *207:32 *207:38 39.6736 
5 *207:38 *207:46 38.3968 
6 *207:46 *1079:A2 23 
7 *207:18 *1070:B1 48.1232 
*END

*D_NET *208 0.0218342
*CONN
*I *1079:C1 I *D sky130_fd_sc_hd__a211o_1
*I *1071:B_N I *D sky130_fd_sc_hd__or2b_1
*I *1078:A3 I *D sky130_fd_sc_hd__o31ai_2
*I *1070:Y O *D sky130_fd_sc_hd__a21oi_2
*CAP
1 *1079:C1 0
2 *1071:B_N 0.000460961
3 *1078:A3 0.000293144
4 *1070:Y 5.30641e-05
5 *208:106 0.000606306
6 *208:81 0.00234206
7 *208:73 0.00235304
8 *208:36 0.00134359
9 *208:8 0.00218175
10 *1071:B_N *253:8 0.0004219
11 *1071:B_N *253:14 0.000343165
12 *1071:B_N *259:50 5.3304e-05
13 *1078:A3 *227:71 0.000187738
14 *1078:A3 *245:10 2.21614e-05
15 *1078:A3 *251:14 7.72375e-05
16 *1078:A3 *257:14 5.3304e-05
17 *1078:A3 *262:45 5.56356e-05
18 *208:8 *263:18 2.91241e-05
19 *208:36 *1097:A1 3.14393e-06
20 *208:36 *1097:B2 2.54319e-06
21 *208:36 *254:20 0.000314974
22 *208:36 *269:53 0
23 *208:73 *1020:A 9.41704e-05
24 *208:73 *1075:A1 0.000733915
25 *208:73 *236:194 0.000875461
26 *208:73 *236:207 0.000436139
27 *208:73 *254:20 3.08205e-05
28 *208:73 *267:26 0.000304975
29 *208:73 *271:43 0.000423085
30 *208:73 *271:68 6.85548e-05
31 *208:81 *233:169 0.000201643
32 *208:81 *253:8 0.000371963
33 *208:81 *254:10 3.55164e-05
34 *208:106 *210:26 0.000874202
35 *208:106 *212:14 2.43944e-05
36 *208:106 *228:24 2.72856e-05
37 *1023:A1 *208:106 3.5471e-05
38 *1070:B1 *208:8 5.40337e-05
39 *1070:B1 *208:36 7.07958e-05
40 *1073:A *208:106 8.25041e-06
41 *1079:A1 *208:106 1.34513e-05
42 *58:22 *208:73 0.000621498
43 *64:51 *208:81 0.00143026
44 *76:16 *208:36 0
45 *76:32 *208:36 1.5891e-05
46 *85:30 *208:81 1.89815e-05
47 *91:8 *208:73 0.000181801
48 *91:24 *208:36 7.07958e-05
49 *97:16 *208:36 2.6365e-05
50 *98:42 *208:106 0.000124931
51 *98:60 *208:106 0.000259161
52 *98:104 *208:36 0.000128214
53 *104:16 *208:106 1.37349e-05
54 *106:53 *208:36 4.51797e-05
55 *109:85 *208:36 5.14746e-06
56 *110:14 *1071:B_N 0.000394896
57 *110:14 *208:81 0.000643199
58 *112:91 *1078:A3 2.01658e-06
59 *112:91 *208:36 9.57661e-05
60 *116:96 *1071:B_N 0.000254897
61 *119:30 *1078:A3 0
62 *120:39 *1071:B_N 5.56356e-05
63 *122:56 *208:36 0.000176563
64 *150:83 *208:36 0
65 *155:143 *208:106 2.30886e-05
66 *162:38 *208:106 0.000282986
67 *167:38 *208:8 0.000188934
68 *174:57 *208:73 4.46854e-05
69 *174:67 *208:73 9.66668e-05
70 *188:10 *208:36 7.68979e-05
71 *191:142 *208:106 4.36157e-05
72 *201:90 *208:73 0
73 *201:100 *208:81 0.00049756
74 *201:110 *208:81 8.05141e-05
75 *202:27 *1071:B_N 5.20036e-05
*RES
1 *1070:Y *208:8 40.0507 
2 *208:8 *208:36 48.8138 
3 *208:36 *1078:A3 43.8259 
4 *208:8 *208:73 46.4857 
5 *208:73 *208:81 44.0829 
6 *208:81 *1071:B_N 49.6829 
7 *208:81 *208:106 44.1686 
8 *208:106 *1079:C1 38 
*END

*D_NET *209 0.0148498
*CONN
*I *1072:B I *D sky130_fd_sc_hd__nand2_1
*I *1076:A2 I *D sky130_fd_sc_hd__a31o_1
*I *1071:X O *D sky130_fd_sc_hd__or2b_1
*CAP
1 *1072:B 0
2 *1076:A2 0
3 *1071:X 0
4 *209:63 0.000605926
5 *209:45 0.00263736
6 *209:18 0.000695642
7 *209:10 0.00124633
8 *209:4 0.00258212
9 *209:10 *255:12 0.000334896
10 *209:18 *249:14 2.37544e-05
11 *209:18 *250:29 0.000485991
12 *209:45 *227:53 0.00026504
13 *209:45 *259:50 0.000520678
14 *209:63 *227:71 2.90698e-05
15 *209:63 *232:25 2.99938e-05
16 *209:63 *234:16 9.03137e-05
17 *209:63 *236:49 0
18 *970:A *209:18 0.000262864
19 *1013:A *209:18 0.000600905
20 *1025:A2 *209:45 1.19102e-05
21 *1138:B *209:18 2.18409e-05
22 *36:6 *209:18 0.000178517
23 *68:8 *209:18 0.000429948
24 *77:109 *209:63 0.000179993
25 *82:100 *209:10 3.87394e-05
26 *93:53 *209:45 9.7454e-05
27 *95:69 *209:63 0.000144356
28 *96:28 *209:10 0.000180232
29 *109:10 *209:18 0.000226241
30 *120:39 *209:45 2.19845e-05
31 *121:73 *209:45 6.34811e-05
32 *121:87 *209:45 0.000162218
33 *145:47 *209:45 7.68979e-05
34 *145:57 *209:45 0
35 *150:22 *209:10 0.000671267
36 *151:23 *209:18 9.5877e-05
37 *151:27 *209:45 0.000129053
38 *152:18 *209:18 0.000185536
39 *164:8 *209:45 0.00062793
40 *177:18 *209:45 2.81411e-05
41 *178:14 *209:45 9.28078e-06
42 *191:87 *209:63 1.00806e-05
43 *191:97 *209:63 0.000231938
44 *198:24 *209:63 0.000148169
45 *198:28 *209:63 0
46 *201:16 *209:63 0.000417382
47 *204:60 *209:18 5.04421e-05
*RES
1 *1071:X *209:4 23 
2 *209:4 *209:10 41.4136 
3 *209:10 *209:18 48.6221 
4 *209:18 *1076:A2 23 
5 *209:4 *209:45 47.0864 
6 *209:45 *209:63 43.5471 
7 *209:63 *1072:B 38 
*END

*D_NET *210 0.016016
*CONN
*I *1074:A1 I *D sky130_fd_sc_hd__o31ai_1
*I *1075:A1 I *D sky130_fd_sc_hd__a21o_1
*I *1077:A1 I *D sky130_fd_sc_hd__a211o_1
*I *1073:Y O *D sky130_fd_sc_hd__inv_2
*CAP
1 *1074:A1 2.52976e-05
2 *1075:A1 0.000588676
3 *1077:A1 0.000210455
4 *1073:Y 0.000467749
5 *210:53 0.00177069
6 *210:49 0.00158266
7 *210:28 0.000585812
8 *210:26 0.00140907
9 *210:14 0.00187682
10 *210:14 *265:53 0.000357325
11 *210:26 *1186:A 6.01215e-05
12 *210:26 *228:24 8.49387e-06
13 *210:26 *236:39 0.000315018
14 *210:53 *230:96 0
15 *210:53 *234:112 8.26999e-05
16 *210:53 *234:134 9.23705e-06
17 *210:53 *235:74 0.000341113
18 *961:A *210:53 0.0007418
19 *1023:A1 *210:14 0.000177899
20 *1077:B1 *1077:A1 8.69132e-05
21 *1077:C1 *1077:A1 5.56279e-05
22 *1185:A *210:26 0.00022034
23 *3:21 *210:14 2.54169e-06
24 *24:30 *210:14 7.17297e-05
25 *25:18 *210:53 0.000370541
26 *31:34 *1074:A1 4.21048e-05
27 *31:34 *210:49 0.000263534
28 *54:12 *1077:A1 0.000154386
29 *54:12 *210:49 0.000379412
30 *77:49 *210:53 3.04184e-05
31 *83:130 *210:53 1.20476e-05
32 *87:26 *210:53 1.92812e-05
33 *95:12 *210:14 3.83285e-05
34 *99:43 *210:53 0.000414393
35 *104:16 *210:14 6.92184e-05
36 *110:53 *210:53 1.81615e-05
37 *125:46 *1077:A1 6.17437e-06
38 *126:10 *1077:A1 5.61255e-06
39 *129:26 *1077:A1 0.000152296
40 *129:26 *210:49 0.000387457
41 *141:10 *210:53 0.00014003
42 *154:8 *210:53 3.12448e-05
43 *161:32 *210:14 0.000192463
44 *161:32 *210:26 7.57281e-06
45 *162:38 *210:26 0.000227452
46 *170:43 *210:53 0
47 *172:22 *1074:A1 1.59094e-05
48 *172:22 *210:49 8.06211e-05
49 *174:108 *1077:A1 0.000231913
50 *205:10 *210:26 6.92184e-05
51 *208:73 *1075:A1 0.000733915
52 *208:106 *210:26 0.000874202
*RES
1 *1073:Y *210:14 49.819 
2 *210:14 *210:26 43.7454 
3 *210:26 *210:28 15 
4 *210:28 *1077:A1 43.4271 
5 *210:28 *210:49 23.7829 
6 *210:49 *210:53 36.9779 
7 *210:53 *1075:A1 46.2443 
8 *210:49 *1074:A1 23.6214 
*END

*D_NET *211 0.0222281
*CONN
*I *1076:A3 I *D sky130_fd_sc_hd__a31o_1
*I *1075:X O *D sky130_fd_sc_hd__a21o_1
*CAP
1 *1076:A3 0
2 *1075:X 6.67125e-05
3 *211:34 0.000780963
4 *211:26 0.00116268
5 *211:18 0.00409429
6 *211:10 0.00377929
7 *211:10 *264:31 0.000120377
8 *211:18 *226:30 0.00045693
9 *211:18 *238:12 5.24145e-05
10 *211:18 *266:51 0.000353473
11 *211:18 *271:24 0.000511436
12 *211:26 *1102:B 6.17437e-06
13 *211:34 *250:29 7.43059e-05
14 *211:34 *271:8 1.23293e-05
15 *44:22 *211:34 8.6993e-05
16 *67:22 *211:18 0.000276891
17 *70:12 *211:18 0.0001485
18 *70:32 *211:18 0.000106911
19 *70:32 *211:26 0.000230783
20 *82:177 *211:18 5.01588e-05
21 *107:12 *211:10 0.000118287
22 *109:10 *211:34 9.59224e-05
23 *136:24 *211:18 1.24684e-05
24 *146:24 *211:18 9.43676e-05
25 *147:10 *211:26 6.65598e-06
26 *152:18 *211:34 1.12349e-05
27 *152:22 *211:34 0.00119424
28 *152:34 *211:18 0.000286219
29 *158:10 *211:26 0.00113689
30 *163:51 *211:18 0.000213489
31 *168:55 *211:34 0.00159228
32 *173:30 *211:26 0.00106591
33 *185:61 *211:18 0.00202724
34 *187:16 *211:34 0.00158782
35 *189:32 *211:18 1.74575e-06
36 *189:32 *211:34 0.000203232
37 *190:12 *211:18 0.000151183
38 *205:61 *211:34 5.73309e-05
*RES
1 *1075:X *211:10 47.7296 
2 *211:10 *211:18 37.073 
3 *211:18 *211:26 46.3332 
4 *211:26 *211:34 49.1993 
5 *211:34 *1076:A3 23 
*END

*D_NET *212 0.0211799
*CONN
*I *1080:B I *D sky130_fd_sc_hd__nand2_1
*I *1079:X O *D sky130_fd_sc_hd__a211o_1
*CAP
1 *1080:B 0
2 *1079:X 0.000186785
3 *212:58 0.00260524
4 *212:42 0.00367343
5 *212:30 0.00308594
6 *212:14 0.00220454
7 *212:30 *265:53 9.10986e-05
8 *212:58 *223:34 9.00812e-05
9 seg[2] *212:58 2.82449e-05
10 seg[3] *212:58 0
11 *3:21 *212:30 0.000294952
12 *35:8 *212:42 0.00014338
13 *40:22 *212:30 0.00153596
14 *45:24 *212:58 1.67025e-05
15 *48:12 *212:58 0.000135941
16 *57:36 *212:58 1.22804e-05
17 *64:66 *212:58 0
18 *76:32 *212:58 0.000257881
19 *81:88 *212:42 0.000210337
20 *81:92 *212:42 0.00092291
21 *82:18 *212:58 0.000257005
22 *82:205 *212:58 1.14452e-05
23 *90:24 *212:58 0.000190943
24 *90:70 *212:30 0.000309417
25 *98:60 *212:14 9.30302e-05
26 *100:77 *212:58 2.05503e-05
27 *101:20 *212:58 0
28 *102:16 *212:14 8.81675e-05
29 *106:10 *212:58 9.63274e-05
30 *108:65 *212:58 4.60157e-05
31 *113:16 *212:58 6.22155e-06
32 *113:84 *212:58 1.24219e-05
33 *115:40 *212:14 9.07036e-05
34 *121:73 *212:58 0.00179016
35 *125:20 *212:58 0.000784682
36 *126:14 *212:30 0.000285477
37 *128:12 *212:58 7.41424e-05
38 *129:26 *212:30 0.000287568
39 *130:56 *212:58 0.000116594
40 *155:143 *212:14 0.000138005
41 *163:18 *212:30 0.000684664
42 *183:46 *212:58 0
43 *188:18 *212:58 6.8999e-05
44 *189:14 *212:58 0
45 *189:32 *212:58 0.000101554
46 *205:22 *212:30 0.000105656
47 *208:106 *212:14 2.43944e-05
*RES
1 *1079:X *212:14 42.0704 
2 *212:14 *212:30 41.4026 
3 *212:30 *212:42 45.8775 
4 *212:42 *212:58 44.5838 
5 *212:58 *1080:B 38 
*END

*D_NET *213 0.00380788
*CONN
*I *1082:A I *D sky130_fd_sc_hd__clkbuf_1
*I *1081:X O *D sky130_fd_sc_hd__clkbuf_1
*CAP
1 *1082:A 0
2 *1081:X 0.000268532
3 *213:16 0.000632832
4 *213:10 0.000901364
5 *213:10 *230:26 1.16455e-05
6 *213:16 *238:39 5.56279e-05
7 *213:16 *238:62 1.41129e-05
8 *28:8 *213:16 0.000700902
9 *40:12 *213:16 9.41704e-05
10 *53:20 *213:16 0.000350331
11 *161:42 *213:10 0.000389087
12 *174:124 *213:10 0.00020698
13 *174:124 *213:16 5.3304e-05
14 *174:134 *213:10 0.000128988
*RES
1 *1081:X *213:10 44.2764 
2 *213:10 *213:16 28.9821 
3 *213:16 *1082:A 23 
*END

*D_NET *214 0.000645404
*CONN
*I *1083:B I *D sky130_fd_sc_hd__and2_1
*I *1082:X O *D sky130_fd_sc_hd__clkbuf_1
*CAP
1 *1083:B 0
2 *1082:X 0.000196893
3 *214:10 0.000196893
4 *19:14 *214:10 0.000170807
5 *140:10 *214:10 8.08108e-05
*RES
1 *1082:X *214:10 41.8321 
2 *214:10 *1083:B 38 
*END

*D_NET *215 0.0185946
*CONN
*I *1084:A I *D sky130_fd_sc_hd__buf_2
*I *1083:X O *D sky130_fd_sc_hd__and2_1
*CAP
1 *1084:A 0
2 *1083:X 7.81982e-05
3 *215:20 0.000321161
4 *215:14 0.00234862
5 *215:12 0.00308099
6 *215:8 0.00113173
7 *215:8 *239:22 9.77405e-05
8 *215:12 *1103:A0 2.11157e-05
9 *215:12 *1124:A1 3.61904e-05
10 *215:12 *216:20 0
11 *215:12 *239:37 0.000105318
12 *215:20 *216:14 0
13 *978:B *215:14 0.00131795
14 *1030:A *215:14 0.000103405
15 *28:24 *215:12 0.00125162
16 *42:10 *215:12 0
17 *45:24 *215:14 0.00043718
18 *79:6 *215:14 0.0019774
19 *116:102 *215:14 1.71761e-05
20 *139:18 *215:12 0.00035245
21 *140:10 *215:12 0.000458748
22 *168:63 *215:14 0.000514744
23 *169:10 *215:14 0.00010018
24 *175:37 *215:14 0.000132697
25 *180:53 *215:14 0.00169999
26 *180:57 *215:14 0.00293562
27 *197:36 *215:20 7.4361e-05
*RES
1 *1083:X *215:8 39.0979 
2 *215:8 *215:12 41.9079 
3 *215:12 *215:14 69.7036 
4 *215:14 *215:20 35.075 
5 *215:20 *1084:A 23 
*END

*D_NET *216 0.0422853
*CONN
*I *1089:S I *D sky130_fd_sc_hd__mux2_1
*I *1087:S I *D sky130_fd_sc_hd__mux2_1
*I *1085:S I *D sky130_fd_sc_hd__mux2_1
*I *1103:S I *D sky130_fd_sc_hd__mux2_1
*I *1091:S I *D sky130_fd_sc_hd__mux2_1
*I *1084:X O *D sky130_fd_sc_hd__buf_2
*CAP
1 *1089:S 0
2 *1087:S 0.000198787
3 *1085:S 0
4 *1103:S 0
5 *1091:S 0
6 *1084:X 0
7 *216:85 0.000869639
8 *216:81 0.00173577
9 *216:79 0.00225095
10 *216:64 0.00303894
11 *216:37 0.000590283
12 *216:20 0.00271233
13 *216:14 0.00703433
14 *216:4 0.00305937
15 *216:14 *234:50 0
16 *216:14 *260:46 0.000409468
17 *216:20 *238:22 5.75756e-06
18 *216:37 *229:16 0
19 *216:37 *238:22 0.000392519
20 *216:37 *271:20 0.000141613
21 *216:64 *238:62 4.51815e-05
22 *216:64 *258:10 1.21972e-05
23 *216:64 *258:20 1.82177e-05
24 seg[4] *216:79 0
25 seg[5] *216:79 7.59158e-05
26 *997:A *216:85 0.000279219
27 *1085:A1 *216:64 5.56356e-05
28 *1089:A1 *1087:S 0.000366342
29 *23:12 *216:14 0
30 *24:24 *216:64 4.6719e-05
31 *28:30 *216:81 0.000141236
32 *30:12 *216:85 0
33 *30:16 *216:81 0.00499588
34 *42:10 *216:20 0.000129924
35 *43:26 *216:64 0.000527274
36 *82:12 *216:79 0
37 *99:26 *216:64 2.47945e-05
38 *113:55 *216:64 0.000790271
39 *117:10 *216:14 0
40 *117:26 *216:20 0.000931309
41 *117:49 *216:64 0.000150598
42 *125:59 *216:79 1.05658e-05
43 *127:37 *216:14 0
44 *135:10 *216:81 0
45 *136:24 *216:85 0.000142959
46 *150:44 *216:79 3.76069e-05
47 *150:46 *216:81 0.00371886
48 *154:18 *216:64 0.000395166
49 *166:16 *216:79 0
50 *168:55 *216:20 0
51 *168:63 *216:20 0
52 *182:24 *216:79 0.000229765
53 *184:22 *216:79 0.000139459
54 *186:26 *216:79 0.000480168
55 *187:16 *216:20 0
56 *190:30 *216:20 0.000890217
57 *197:36 *216:14 0
58 *201:33 *216:64 2.50783e-05
59 *203:22 *216:14 0.00288831
60 *203:22 *216:20 0.0022967
61 *215:12 *216:20 0
62 *215:20 *216:14 0
*RES
1 *1084:X *216:4 23 
2 *216:4 *216:14 43.9213 
3 *216:14 *216:20 31.8227 
4 *216:20 *1091:S 38 
5 *216:20 *216:37 27.0143 
6 *216:37 *1103:S 23 
7 *216:14 *216:64 47.8322 
8 *216:64 *1085:S 23 
9 *216:4 *216:79 35.9627 
10 *216:79 *216:81 65.4675 
11 *216:81 *216:85 28.485 
12 *216:85 *1087:S 27.9093 
13 *216:85 *1089:S 23 
*END

*D_NET *217 0.00776779
*CONN
*I *1086:A I *D sky130_fd_sc_hd__clkbuf_1
*I *1085:X O *D sky130_fd_sc_hd__mux2_1
*CAP
1 *1086:A 0
2 *1085:X 0
3 *217:30 0.00128545
4 *217:16 0.00229241
5 *217:6 0.00100696
6 *217:30 *227:14 0.000499256
7 *217:30 *255:20 9.02364e-05
8 *1034:B1 *217:30 0.000137361
9 *36:22 *217:16 9.45864e-05
10 *54:12 *217:16 0.000600673
11 *66:20 *217:16 4.15283e-06
12 *113:36 *217:30 6.45389e-05
13 *124:36 *217:16 0.000538008
14 *125:46 *217:16 0.000718385
15 *137:20 *217:16 6.56284e-05
16 *169:16 *217:30 5.3304e-05
17 *169:29 *217:30 0.000157229
18 *173:14 *217:30 0.000108841
19 *205:24 *217:16 5.0775e-05
*RES
1 *1085:X *217:6 38 
2 *217:6 *217:16 49.5336 
3 *217:16 *217:30 36.3357 
4 *217:30 *1086:A 23 
*END

*D_NET *218 0.0124439
*CONN
*I *1088:A I *D sky130_fd_sc_hd__clkbuf_1
*I *1087:X O *D sky130_fd_sc_hd__mux2_1
*CAP
1 *1088:A 0
2 *1087:X 8.34481e-05
3 *218:22 0.000870185
4 *218:10 0.00246916
5 *218:8 0.00168243
6 *218:10 *263:84 5.47697e-05
7 *218:22 *1003:C 0.000358732
8 *218:22 *1117:D_N 5.3304e-05
9 *218:22 *265:53 5.5792e-05
10 *1003:D *218:22 0
11 *1018:A *218:22 0.000268578
12 *1041:A1 *218:22 0.000393733
13 *1089:A1 *218:8 5.14826e-05
14 *1089:A1 *218:10 4.22257e-05
15 *50:10 *218:10 1.36038e-05
16 *55:8 *218:22 0.000163905
17 *73:16 *218:10 5.13257e-05
18 *77:117 *218:22 0.000188259
19 *82:30 *218:22 0.000164512
20 *86:12 *218:10 3.95159e-06
21 *88:70 *218:10 0.00113696
22 *118:59 *218:22 0.000126457
23 *122:62 *218:10 0.000791146
24 *130:76 *218:10 4.82567e-05
25 *143:16 *218:10 0.000300876
26 *156:18 *218:22 0.000352567
27 *174:29 *218:10 0.00131514
28 *180:6 *218:22 5.3304e-05
29 *197:14 *218:10 0.000201561
30 *197:22 *218:10 0.000988284
31 *197:28 *218:10 0.00011687
32 *197:36 *218:10 4.30894e-05
*RES
1 *1087:X *218:8 39.0979 
2 *218:8 *218:10 40.9936 
3 *218:10 *218:22 35.3621 
4 *218:22 *1088:A 23 
*END

*D_NET *219 0.0220426
*CONN
*I *1090:A I *D sky130_fd_sc_hd__clkbuf_1
*I *1089:X O *D sky130_fd_sc_hd__mux2_1
*CAP
1 *1090:A 0
2 *1089:X 0.000441577
3 *219:26 0.000204712
4 *219:20 0.00567151
5 *219:8 0.00590837
6 *219:8 *264:31 1.13812e-05
7 *219:20 *221:43 0.00642116
8 *219:20 *254:45 0.00121539
9 *219:20 *265:22 0
10 *219:20 *266:28 0.000156821
11 *1089:A1 *219:8 0
12 *19:14 *219:26 2.31765e-05
13 *57:72 *219:26 0.000490667
14 *70:12 *219:20 0
15 *82:177 *219:20 0
16 *117:26 *219:20 0
17 *117:26 *219:26 2.24048e-05
18 *139:35 *219:26 0.000152608
19 *140:10 *219:26 0.000342703
20 *168:51 *219:20 0.000964789
21 *179:14 *219:20 1.53524e-05
22 *207:32 *219:20 0
*RES
1 *1089:X *219:8 46.4204 
2 *219:8 *219:20 43.9061 
3 *219:20 *219:26 30.3639 
4 *219:26 *1090:A 23 
*END

*D_NET *220 0.0163996
*CONN
*I *1092:A I *D sky130_fd_sc_hd__buf_1
*I *1091:X O *D sky130_fd_sc_hd__mux2_1
*CAP
1 *1092:A 0.000469355
2 *1091:X 0.000833214
3 *220:30 0.00320868
4 *220:6 0.00357254
5 *220:6 *238:22 2.95526e-05
6 *220:6 *253:14 0.000175903
7 *220:30 *252:20 4.51815e-05
8 *1019:B *220:6 2.64616e-05
9 *19:8 *220:6 0.000100486
10 *30:28 *1092:A 0.000157595
11 *45:24 *220:30 8.7908e-05
12 *56:12 *1092:A 5.41288e-05
13 *56:14 *220:30 5.56706e-05
14 *57:103 *220:6 0.000350829
15 *60:14 *220:6 0.00175669
16 *78:36 *220:30 3.54658e-05
17 *82:79 *220:30 0
18 *116:96 *220:30 0
19 *126:28 *1092:A 1.27812e-05
20 *150:22 *220:30 7.73846e-05
21 *151:8 *220:30 1.36826e-05
22 *157:28 *220:30 6.50401e-05
23 *157:32 *220:6 0.000678086
24 *182:24 *220:30 0.00264829
25 *187:30 *220:30 0.000358688
26 *191:26 *220:30 0.000219962
27 *191:34 *220:6 9.25435e-05
28 *205:40 *220:30 0.00127348
*RES
1 *1091:X *220:6 47.4429 
2 *220:6 *220:30 48.0517 
3 *220:30 *1092:A 45.1879 
*END

*D_NET *221 0.036566
*CONN
*I *1101:B I *D sky130_fd_sc_hd__and2b_1
*I *275:DIODE I *D sky130_fd_sc_hd__diode_2
*I *1100:A_N I *D sky130_fd_sc_hd__and2b_1
*I *1093:Y O *D sky130_fd_sc_hd__a21oi_2
*CAP
1 *1101:B 0.000336929
2 *275:DIODE 1.57412e-05
3 *1100:A_N 0.00052484
4 *1093:Y 0.000781709
5 *221:43 0.00667201
6 *221:33 0.00760102
7 *221:12 0.00258822
8 *1101:B *233:59 1.05658e-05
9 *221:12 *245:14 2.02784e-05
10 *221:43 *238:12 0.000300664
11 *221:43 *238:22 0.000265953
12 *221:43 *265:22 0.000141169
13 *221:43 *266:28 0.000210087
14 *1055:A3 *221:33 0
15 *1095:A2 *1100:A_N 2.11157e-05
16 *19:14 *221:43 0.000109432
17 *28:24 *1101:B 2.33476e-05
18 *42:10 *275:DIODE 2.26497e-05
19 *42:10 *221:43 0.000443488
20 *56:26 *1100:A_N 8.81036e-05
21 *56:26 *221:12 0.000279241
22 *65:18 *221:33 0.00016941
23 *70:32 *221:43 0.000106894
24 *80:36 *1101:B 0
25 *84:22 *221:33 0
26 *106:37 *1100:A_N 0.000680362
27 *106:37 *221:12 0.000625704
28 *108:49 *221:12 2.26497e-05
29 *112:91 *1100:A_N 7.87147e-05
30 *117:26 *221:43 0.00210175
31 *119:30 *1100:A_N 4.07138e-06
32 *123:80 *221:33 0.00120149
33 *147:28 *1101:B 0.000100381
34 *147:28 *221:43 2.55899e-05
35 *178:67 *1100:A_N 0.000146822
36 *183:46 *221:12 5.26268e-05
37 *190:30 *221:43 0.00217357
38 *194:10 *221:33 0.00169441
39 *196:31 *1100:A_N 0.000354747
40 *196:41 *1100:A_N 0.000149058
41 *219:20 *221:43 0.00642116
*RES
1 *1093:Y *221:12 48.352 
2 *221:12 *1100:A_N 49.3252 
3 *221:12 *221:33 46.4293 
4 *221:33 *221:43 41.3904 
5 *221:43 *275:DIODE 46.3211 
6 *221:43 *1101:B 47.064 
*END

*D_NET *222 0.0132574
*CONN
*I *1095:B1 I *D sky130_fd_sc_hd__o21a_1
*I *1094:Y O *D sky130_fd_sc_hd__a21oi_1
*CAP
1 *1095:B1 0
2 *1094:Y 0.000629148
3 *222:30 0.00263632
4 *222:8 0.00326547
5 *222:30 *223:10 0.000106833
6 *222:30 *251:61 0.000104003
7 *953:A2 *222:30 2.05503e-05
8 *953:B1 *222:30 0.0002231
9 *67:32 *222:30 8.72924e-05
10 *81:28 *222:30 0.000493004
11 *81:38 *222:30 0.000829447
12 *83:130 *222:30 0.000266817
13 *91:24 *222:30 0.000107082
14 *104:16 *222:30 7.85449e-05
15 *108:30 *222:30 0.00139403
16 *108:49 *222:30 0.000191737
17 *109:50 *222:30 0.000101581
18 *120:72 *222:30 0.000246441
19 *130:39 *222:30 0.000318904
20 *158:14 *222:8 0.000458335
21 *159:18 *222:30 1.46462e-05
22 *160:18 *222:30 0.00168411
*RES
1 *1094:Y *222:8 47.1971 
2 *222:8 *222:30 47.5535 
3 *222:30 *1095:B1 23 
*END

*D_NET *223 0.0213183
*CONN
*I *1099:A I *D sky130_fd_sc_hd__xor2_1
*I *1095:X O *D sky130_fd_sc_hd__o21a_1
*CAP
1 *1099:A 0.000322437
2 *1095:X 0.00115665
3 *223:50 0.00158832
4 *223:42 0.00172156
5 *223:34 0.00175201
6 *223:18 0.00181428
7 *223:10 0.00167459
8 *1099:A *227:33 0.00018442
9 *223:34 *234:173 0.000178913
10 *223:34 *242:24 0
11 *223:42 *268:30 8.03944e-05
12 *223:50 *231:12 3.28795e-05
13 *223:50 *258:24 0.000124066
14 *223:50 *258:28 1.05441e-05
15 *1069:A *223:18 0.000178227
16 *1095:A2 *223:10 2.18286e-05
17 *31:14 *223:50 0.000121976
18 *41:22 *223:42 7.83041e-05
19 *51:14 *223:42 0.00132918
20 *57:14 *223:34 2.04506e-05
21 *78:118 *223:42 0.000225607
22 *82:18 *223:34 5.88378e-06
23 *82:154 *223:10 4.67488e-05
24 *83:48 *223:42 0.000197266
25 *83:48 *223:50 0.000739272
26 *88:78 *223:34 0.00104464
27 *89:22 *223:34 0
28 *108:65 *223:18 2.15485e-05
29 *108:65 *223:34 0.000806331
30 *110:68 *223:10 9.32735e-05
31 *112:18 *223:18 2.02872e-05
32 *112:47 *223:42 0.000723506
33 *112:47 *223:50 4.65192e-05
34 *124:36 *223:50 0.000137361
35 *125:32 *1099:A 0.000592452
36 *125:59 *223:34 0.00015795
37 *137:24 *1099:A 0.000935933
38 *138:30 *223:50 0.000143564
39 *150:75 *223:10 0.000509202
40 *159:18 *223:10 0.000238714
41 *176:16 *223:34 0.00026828
42 *193:8 *223:18 0.000746866
43 *196:54 *223:10 0.000181794
44 *206:28 *223:34 9.86662e-05
45 *207:8 *223:18 4.96207e-05
46 *207:18 *223:18 0.000699054
47 *212:58 *223:34 9.00812e-05
48 *222:30 *223:10 0.000106833
*RES
1 *1095:X *223:10 42.72 
2 *223:10 *223:18 43.2364 
3 *223:18 *223:34 43.6271 
4 *223:34 *223:42 46.1157 
5 *223:42 *223:50 47.2964 
6 *223:50 *1099:A 48.6264 
*END

*D_NET *224 0.00633559
*CONN
*I *1098:A2 I *D sky130_fd_sc_hd__o21ai_2
*I *1096:X O *D sky130_fd_sc_hd__buf_1
*CAP
1 *1098:A2 0.000486026
2 *1096:X 4.73729e-05
3 *224:12 0.00176827
4 *224:8 0.00132962
5 *224:8 *238:70 2.43944e-05
6 *224:12 *256:34 0
7 an[2] *224:12 0
8 *76:32 *224:12 0.000108695
9 *83:113 *224:12 0
10 *97:60 *224:12 0.000243219
11 *105:10 *224:12 0.00011215
12 *110:105 *224:8 0.000108315
13 *128:20 *224:12 0
14 *144:18 *224:12 0.000826086
15 *150:58 *224:12 0.000196719
16 *185:61 *224:12 0
17 *195:12 *224:12 0.00108473
*RES
1 *1096:X *224:8 39.0979 
2 *224:8 *224:12 46.4857 
3 *224:12 *1098:A2 31.2443 
*END

*D_NET *225 0.00372745
*CONN
*I *1098:B1 I *D sky130_fd_sc_hd__o21ai_2
*I *1097:X O *D sky130_fd_sc_hd__a221o_1
*CAP
1 *1098:B1 0.000525127
2 *1097:X 0.000581172
3 *225:10 0.0011063
4 *1098:B1 *1020:A 0.000145102
5 *1098:B1 *267:26 0.000183547
6 *225:10 *237:78 0
7 *966:A_N *225:10 9.41704e-05
8 *966:B *225:10 5.3304e-05
9 *84:22 *225:10 1.6152e-05
10 *95:103 *225:10 0.000143154
11 *98:91 *225:10 4.94766e-06
12 *120:105 *225:10 1.75427e-05
13 *123:80 *1098:B1 2.97099e-05
14 *159:8 *1098:B1 0.00042742
15 *159:18 *225:10 0.000298266
16 *201:72 *225:10 0.000101536
*RES
1 *1097:X *225:10 47.6321 
2 *225:10 *1098:B1 47.6736 
*END

*D_NET *226 0.0239956
*CONN
*I *1099:B I *D sky130_fd_sc_hd__xor2_1
*I *1098:Y O *D sky130_fd_sc_hd__o21ai_2
*CAP
1 *1099:B 0
2 *1098:Y 1.02029e-05
3 *226:30 0.00603285
4 *226:10 0.00604305
5 *226:10 *263:84 2.33476e-05
6 *226:30 *259:34 4.40565e-05
7 *226:30 *264:31 0.000503245
8 *226:30 *266:51 0.00432518
9 *64:88 *226:30 0.000583944
10 *66:20 *226:30 7.16875e-06
11 *85:20 *226:30 0.000574863
12 *98:30 *226:30 0.00160643
13 *124:28 *226:30 1.77495e-05
14 *130:56 *226:30 0.000236678
15 *136:24 *226:30 0.00208735
16 *137:20 *226:30 1.85797e-05
17 *146:24 *226:30 0.000392425
18 *163:18 *226:30 0.000208268
19 *168:49 *226:30 0.000171483
20 *171:52 *226:30 8.99457e-05
21 *175:37 *226:30 0.000551239
22 *193:8 *226:10 1.05658e-05
23 *211:18 *226:30 0.00045693
*RES
1 *1098:Y *226:10 46.3211 
2 *226:10 *226:30 47.355 
3 *226:30 *1099:B 38 
*END

*D_NET *227 0.0194449
*CONN
*I *1100:B I *D sky130_fd_sc_hd__and2b_1
*I *1101:A_N I *D sky130_fd_sc_hd__and2b_1
*I *1099:X O *D sky130_fd_sc_hd__xor2_1
*CAP
1 *1100:B 0
2 *1101:A_N 0
3 *1099:X 0
4 *227:71 0.000973641
5 *227:53 0.001936
6 *227:33 0.00169509
7 *227:18 0.000619784
8 *227:14 0.00214512
9 *227:4 0.00225807
10 *227:14 *255:20 8.73233e-05
11 *227:18 *239:39 0.00105706
12 *227:18 *239:50 9.91548e-05
13 *227:33 *250:64 0.000188759
14 *227:33 *250:68 7.4244e-06
15 *227:33 *255:36 0.000977752
16 *227:33 *258:24 0.00015058
17 *227:53 *234:91 0.000234715
18 *227:53 *250:64 1.21673e-05
19 *227:53 *250:68 0.000179457
20 *227:71 *245:10 9.85586e-06
21 *227:71 *251:14 0
22 *1078:A3 *227:71 0.000187738
23 *1099:A *227:33 0.00018442
24 *21:18 *227:53 9.38911e-05
25 *29:18 *227:14 0.000646023
26 *31:14 *227:33 0.000148481
27 *37:22 *227:14 1.88823e-05
28 *64:88 *227:14 4.88568e-06
29 *64:96 *227:14 0.000435323
30 *78:67 *227:71 2.21614e-05
31 *81:88 *227:53 0.000175131
32 *81:92 *227:33 0.000422183
33 *81:92 *227:53 1.11624e-05
34 *83:42 *227:53 0.000327235
35 *90:34 *227:53 5.25827e-05
36 *90:34 *227:71 0.000102221
37 *90:84 *227:71 0
38 *95:69 *227:71 0.000181192
39 *104:16 *227:14 0.000448398
40 *116:52 *227:71 2.26406e-05
41 *121:73 *227:53 0.000125942
42 *124:28 *227:14 9.64943e-05
43 *125:32 *227:33 0.000593083
44 *137:24 *227:33 4.61639e-05
45 *141:34 *227:53 0.000130614
46 *145:47 *227:53 5.36496e-06
47 *155:80 *227:71 8.813e-05
48 *165:16 *227:71 4.31746e-05
49 *169:16 *227:14 0.000882912
50 *171:52 *227:14 9.10172e-05
51 *173:14 *227:14 5.87075e-05
52 *177:18 *227:53 2.34117e-05
53 *178:14 *227:53 1.24585e-05
54 *178:67 *227:71 0.000243422
55 *192:18 *227:53 7.14493e-05
56 *198:44 *227:71 2.26497e-05
57 *209:45 *227:53 0.00026504
58 *209:63 *227:71 2.90698e-05
59 *217:30 *227:14 0.000499256
*RES
1 *1099:X *227:4 23 
2 *227:4 *227:14 47.5214 
3 *227:14 *227:18 27.5321 
4 *227:18 *1101:A_N 23 
5 *227:4 *227:33 49.6579 
6 *227:33 *227:53 49.14 
7 *227:53 *227:71 47.2343 
8 *227:71 *1100:B 23 
*END

*D_NET *228 0.0130983
*CONN
*I *1102:A I *D sky130_fd_sc_hd__nor2_1
*I *1100:X O *D sky130_fd_sc_hd__and2b_1
*CAP
1 *1102:A 0
2 *1100:X 0.000585071
3 *228:24 0.0028262
4 *228:10 0.00341127
5 *228:10 *251:16 0.000257636
6 *228:24 *1102:B 0.000102389
7 *228:24 *230:55 4.49877e-05
8 *228:24 *230:77 5.53248e-05
9 *228:24 *235:98 0.00012361
10 *228:24 *236:33 0.000356183
11 *228:24 *242:24 0.000717589
12 *1023:A1 *228:24 2.8314e-06
13 *1160:D *228:24 0.000139796
14 *37:16 *228:24 0.000186606
15 *43:26 *228:24 0.000481839
16 *77:35 *228:10 5.09387e-06
17 *119:56 *228:24 0.000186838
18 *127:53 *228:10 3.05357e-05
19 *145:73 *228:24 0.000163377
20 *146:24 *228:24 0.000205628
21 *155:61 *228:24 0.000205375
22 *161:32 *228:24 0.000449122
23 *161:42 *228:24 1.88141e-05
24 *173:38 *228:10 0.000337898
25 *177:18 *228:10 0.000140046
26 *178:38 *228:24 0.000226948
27 *179:32 *228:24 0.00165885
28 *191:142 *228:24 0.000142698
29 *208:106 *228:24 2.72856e-05
30 *210:26 *228:24 8.49387e-06
*RES
1 *1100:X *228:10 47.2075 
2 *228:10 *228:24 47.3306 
3 *228:24 *1102:A 23 
*END

*D_NET *229 0.00972451
*CONN
*I *1102:B I *D sky130_fd_sc_hd__nor2_1
*I *1101:X O *D sky130_fd_sc_hd__and2b_1
*CAP
1 *1102:B 0.00148126
2 *1101:X 0.000551332
3 *229:16 0.00217076
4 *229:12 0.00124084
5 *1102:B *230:26 5.75266e-05
6 *1102:B *230:55 1.3523e-05
7 *229:12 *239:39 0.000122681
8 *229:16 *271:20 0
9 *22:8 *1102:B 9.64943e-05
10 *37:16 *1102:B 0.00010561
11 *57:68 *1102:B 0.000549908
12 *70:32 *229:16 0.000170069
13 *101:26 *229:16 0.000175148
14 *158:10 *229:16 0.00199116
15 *173:30 *229:16 0.000786343
16 *187:16 *229:16 0.000103294
17 *211:26 *1102:B 6.17437e-06
18 *216:37 *229:16 0
19 *228:24 *1102:B 0.000102389
*RES
1 *1101:X *229:12 46.8864 
2 *229:12 *229:16 42.9643 
3 *229:16 *1102:B 45.9307 
*END

*D_NET *230 0.0279476
*CONN
*I *1115:A1 I *D sky130_fd_sc_hd__mux2_1
*I *1152:A1 I *D sky130_fd_sc_hd__mux2_1
*I *1128:A0 I *D sky130_fd_sc_hd__mux2_1
*I *1103:A1 I *D sky130_fd_sc_hd__mux2_1
*I *1102:Y O *D sky130_fd_sc_hd__nor2_1
*CAP
1 *1115:A1 0
2 *1152:A1 0
3 *1128:A0 0.000452383
4 *1103:A1 0.000340066
5 *1102:Y 0
6 *230:96 0.000761222
7 *230:86 0.00095963
8 *230:77 0.0022777
9 *230:61 0.00299546
10 *230:55 0.00212481
11 *230:26 0.00222633
12 *230:4 0.00303934
13 *1103:A1 *1103:A0 2.64616e-05
14 *1103:A1 *233:77 0.000136743
15 *1128:A0 *1192:A 0.000564154
16 *1128:A0 *241:8 0.000346779
17 *230:26 *238:62 0.000197208
18 *230:55 *235:98 8.81675e-05
19 *230:55 *236:39 0
20 *230:55 *251:34 1.06173e-05
21 *230:55 *253:8 0.000319382
22 *230:61 *1168:CLK 2.43822e-05
23 *230:61 *252:40 0.000392105
24 *230:77 *242:24 0.000726746
25 *230:86 *242:10 2.26406e-05
26 *230:96 *261:24 0.000619331
27 *987:A1 *230:55 0.000354038
28 *1033:B *230:55 5.56356e-05
29 *1063:B *230:61 5.61255e-06
30 *1102:B *230:26 5.75266e-05
31 *1102:B *230:55 1.3523e-05
32 *1131:A *1128:A0 0.000142173
33 *1140:B *230:55 5.43589e-05
34 *1144:S *230:96 1.9054e-05
35 *31:34 *230:61 0.000663734
36 *31:34 *230:77 6.81645e-05
37 *31:34 *230:86 2.2539e-05
38 *32:52 *230:55 0
39 *37:16 *230:55 0.000114641
40 *40:22 *230:26 0.000238696
41 *49:61 *230:77 6.56284e-05
42 *49:61 *230:86 0.000246731
43 *49:76 *230:96 2.4842e-05
44 *57:68 *230:26 0.000169378
45 *64:51 *230:55 7.89973e-05
46 *71:43 *230:96 2.31687e-05
47 *71:47 *230:96 1.17318e-05
48 *77:49 *230:96 0.000175418
49 *83:130 *230:96 5.09387e-06
50 *84:38 *230:77 0.00040621
51 *89:22 *230:77 7.3121e-05
52 *94:18 *230:26 0.000463176
53 *100:40 *230:26 7.06542e-05
54 *101:20 *230:26 0.000259809
55 *104:16 *230:26 0.00016132
56 *106:111 *230:55 0.000257636
57 *109:10 *230:26 2.23467e-05
58 *109:64 *230:77 0.00016684
59 *116:128 *230:96 4.15283e-06
60 *119:46 *230:77 0.000245592
61 *119:56 *230:77 0.00025354
62 *138:57 *230:26 0.000101174
63 *141:53 *230:77 8.43956e-05
64 *145:73 *230:77 0.000169385
65 *146:24 *230:77 0.0002149
66 *155:61 *230:77 0.00018882
67 *161:42 *230:26 9.07421e-05
68 *171:52 *230:26 1.51002e-05
69 *172:8 *230:55 0.000345263
70 *174:73 *230:96 4.96192e-05
71 *174:108 *230:55 0.000142011
72 *174:124 *230:26 0.00019999
73 *174:134 *230:26 4.60157e-05
74 *178:67 *230:77 0.000183467
75 *191:122 *230:86 3.74066e-05
76 *191:122 *230:96 5.64492e-05
77 *196:22 *230:77 0.000408442
78 *201:52 *230:86 1.05984e-05
79 *204:12 *230:77 0.000495854
80 *204:44 *230:26 0.000257766
81 *204:60 *230:26 2.05503e-05
82 *206:34 *1128:A0 0.00105854
83 *206:57 *230:61 1.24376e-05
84 *210:53 *230:96 0
85 *213:10 *230:26 1.16455e-05
86 *228:24 *230:55 4.49877e-05
87 *228:24 *230:77 5.53248e-05
*RES
1 *1102:Y *230:4 23 
2 *230:4 *230:26 45.284 
3 *230:26 *1103:A1 41.9564 
4 *230:4 *230:55 37.62 
5 *230:55 *230:61 43.0086 
6 *230:61 *230:77 42.1807 
7 *230:77 *1128:A0 36.9614 
8 *230:61 *230:86 3.66643 
9 *230:86 *230:96 28.2779 
10 *230:96 *1152:A1 23 
11 *230:86 *1115:A1 38 
*END

*D_NET *231 0.0126664
*CONN
*I *1104:A I *D sky130_fd_sc_hd__buf_1
*I *1103:X O *D sky130_fd_sc_hd__mux2_1
*CAP
1 *1104:A 0
2 *1103:X 2.26823e-05
3 *231:28 0.000389407
4 *231:20 0.000654366
5 *231:12 0.00362281
6 *231:6 0.00338054
7 *231:12 *233:77 0.00016205
8 *231:12 *233:90 7.44856e-05
9 *231:20 *234:16 0
10 *231:28 *234:16 0.000403938
11 *231:28 *234:65 9.1653e-05
12 *35:14 *231:20 0.000195107
13 *37:22 *231:12 3.68467e-05
14 *49:51 *231:12 4.67488e-05
15 *51:14 *231:12 0.000642781
16 *55:14 *231:28 0
17 *81:132 *231:28 5.99567e-06
18 *84:83 *231:12 0.000599293
19 *112:47 *231:12 0.000223906
20 *130:10 *231:12 0.000980362
21 *130:56 *231:12 4.3198e-05
22 *137:24 *231:20 0.000318009
23 *138:18 *231:20 0.000315677
24 *138:30 *231:12 0.000423664
25 *223:50 *231:12 3.28795e-05
*RES
1 *1103:X *231:6 23.4971 
2 *231:6 *231:12 48.7821 
3 *231:12 *231:20 36.4421 
4 *231:20 *231:28 36.8771 
5 *231:28 *1104:A 23 
*END

*D_NET *232 0.00449014
*CONN
*I *1187:A I *D sky130_fd_sc_hd__clkbuf_16
*I *1186:A I *D sky130_fd_sc_hd__clkbuf_16
*I *1185:X O *D sky130_fd_sc_hd__clkbuf_16
*CAP
1 *1187:A 0
2 *1186:A 0.00088524
3 *1185:X 0
4 *232:25 0.000540681
5 *232:4 0.00142592
6 *1186:A *236:39 6.24593e-05
7 *232:25 *236:39 6.94711e-05
8 *232:25 *244:12 0.000132749
9 *232:25 *247:36 1.24376e-05
10 *232:25 *259:71 0.00026603
11 *1185:A *1186:A 0.000341365
12 *31:26 *1186:A 0.000139974
13 *145:73 *232:25 1.83153e-05
14 *177:18 *232:25 5.57532e-05
15 *178:14 *232:25 5.50106e-05
16 *191:97 *232:25 6.06542e-05
17 *191:122 *1186:A 0.000130591
18 *191:122 *232:25 6.17437e-06
19 *192:10 *232:25 0.000151723
20 *201:16 *232:25 4.54699e-05
21 *209:63 *232:25 2.99938e-05
22 *210:26 *1186:A 6.01215e-05
*RES
1 *1185:X *232:4 23 
2 *232:4 *1186:A 34.6 
3 *232:4 *232:25 40.2743 
4 *232:25 *1187:A 23 
*END

*D_NET *233 0.0384257
*CONN
*I *1168:CLK I *D sky130_fd_sc_hd__dfxtp_1
*I *1157:CLK I *D sky130_fd_sc_hd__dfxtp_1
*I *1180:CLK I *D sky130_fd_sc_hd__dfxtp_1
*I *1161:CLK I *D sky130_fd_sc_hd__dfxtp_1
*I *1171:CLK I *D sky130_fd_sc_hd__dfxtp_1
*I *1169:CLK I *D sky130_fd_sc_hd__dfxtp_1
*I *1184:CLK I *D sky130_fd_sc_hd__dfrtp_1
*I *1160:CLK I *D sky130_fd_sc_hd__dfxtp_1
*I *1183:CLK I *D sky130_fd_sc_hd__dfrtp_4
*I *1163:CLK I *D sky130_fd_sc_hd__dfxtp_1
*I *1175:CLK I *D sky130_fd_sc_hd__dfxtp_1
*I *1170:CLK I *D sky130_fd_sc_hd__dfxtp_1
*I *1174:CLK I *D sky130_fd_sc_hd__dfxtp_1
*I *1181:CLK I *D sky130_fd_sc_hd__dfxtp_1
*I *1179:CLK I *D sky130_fd_sc_hd__dfxtp_1
*I *1173:CLK I *D sky130_fd_sc_hd__dfxtp_1
*I *1186:X O *D sky130_fd_sc_hd__clkbuf_16
*CAP
1 *1168:CLK 0.000305558
2 *1157:CLK 0
3 *1180:CLK 0
4 *1161:CLK 0.000271055
5 *1171:CLK 0
6 *1169:CLK 0.000346712
7 *1184:CLK 0
8 *1160:CLK 4.32077e-05
9 *1183:CLK 0
10 *1163:CLK 0
11 *1175:CLK 0
12 *1170:CLK 0.000407449
13 *1174:CLK 0
14 *1181:CLK 0
15 *1179:CLK 0
16 *1173:CLK 0
17 *1186:X 0
18 *233:189 0.00060407
19 *233:176 0.00100286
20 *233:169 0.000179938
21 *233:154 0.00056577
22 *233:147 0.000487798
23 *233:143 0.00115445
24 *233:137 0.000871086
25 *233:133 0.000750582
26 *233:117 0.000798086
27 *233:90 0.000949216
28 *233:77 0.000887539
29 *233:59 0.000872487
30 *233:53 0.00100607
31 *233:51 0.000645456
32 *233:47 0.00080477
33 *233:41 0.00108633
34 *233:27 0.00169337
35 *233:23 0.0011691
36 *233:19 0.000877393
37 *233:12 0.000661298
38 *233:6 0.000708446
39 *1168:CLK *252:40 0.0006776
40 *233:12 *248:12 6.50258e-05
41 *233:23 *236:12 1.05235e-05
42 *233:23 *236:33 2.35777e-05
43 *233:27 *236:12 5.90952e-05
44 *233:27 *255:71 9.56375e-06
45 *233:41 *265:16 6.57932e-06
46 *233:41 *265:53 4.96772e-05
47 *233:47 *238:39 2.11157e-05
48 *233:51 *1124:A1 8.49085e-05
49 *233:53 *1124:A1 0.000112049
50 *233:59 *1124:A1 5.76251e-05
51 *233:77 *249:8 0.000186606
52 *233:117 *252:48 5.3304e-05
53 *233:117 *252:54 3.18198e-05
54 *233:137 *252:40 0.000387375
55 *233:137 *255:63 4.60121e-05
56 *233:147 *237:14 6.43031e-05
57 *272:DIODE *1170:CLK 0.000137525
58 *938:A *1170:CLK 0.000202947
59 *1101:B *233:59 1.05658e-05
60 *1103:A1 *233:77 0.000136743
61 *1116:A *233:47 9.64943e-05
62 *1139:A *233:90 0.000151657
63 *1160:D *233:27 4.9054e-06
64 *1161:D *1161:CLK 0.000227882
65 *1169:D *1169:CLK 0.000232327
66 *1170:D *1170:CLK 0.000128518
67 *1179:D *233:59 1.64354e-05
68 *1183:RESET_B *233:41 0.000361476
69 *1183:RESET_B *233:47 0.000129215
70 *1183:RESET_B *233:117 0.000207491
71 *1184:RESET_B *233:147 5.03716e-05
72 *20:16 *233:41 0.000464796
73 *20:16 *233:47 0.000609571
74 *20:16 *233:117 0.000239144
75 *20:16 *233:137 0.000126298
76 *20:16 *233:143 4.36552e-05
77 *24:30 *233:117 9.82152e-05
78 *26:34 *233:47 0
79 *28:24 *233:59 0.000171903
80 *31:34 *1168:CLK 0.000125955
81 *37:22 *233:77 8.79002e-05
82 *38:6 *233:47 0.00060768
83 *44:22 *233:53 3.81338e-05
84 *44:22 *233:59 1.01436e-05
85 *46:24 *233:117 0.000220571
86 *53:20 *233:90 0.000365702
87 *58:12 *233:189 0.000285873
88 *69:8 *233:23 0.000596975
89 *69:14 *233:143 0.000256225
90 *79:16 *1170:CLK 6.61962e-05
91 *81:38 *233:189 9.11042e-05
92 *81:100 *233:12 0.000135335
93 *82:185 *233:189 0.000610049
94 *83:188 *233:189 0.000114776
95 *84:89 *233:90 4.70292e-05
96 *95:12 *233:41 5.38749e-05
97 *96:36 *233:12 2.66373e-05
98 *102:16 *233:143 0
99 *102:16 *233:176 0
100 *102:16 *233:189 0
101 *106:80 *233:189 5.71767e-05
102 *109:22 *233:51 0.000168524
103 *110:14 *233:169 4.59974e-05
104 *116:90 *233:12 0.000222668
105 *123:42 *233:12 0.000469166
106 *123:42 *233:19 8.27131e-05
107 *123:42 *233:133 0.000247539
108 *123:59 *233:137 0.000170216
109 *123:59 *233:143 9.79925e-05
110 *129:36 *1170:CLK 0.00107769
111 *130:10 *233:90 9.17365e-05
112 *132:10 *1169:CLK 0.000202887
113 *132:10 *233:147 0.000245572
114 *132:10 *233:154 5.40876e-05
115 *134:10 *233:47 0.000246622
116 *138:30 *233:77 0.000440309
117 *138:30 *233:90 0.000207286
118 *153:26 *233:51 0.0003631
119 *153:26 *233:53 0.00026611
120 *153:26 *233:59 0.000416013
121 *160:6 *233:147 0.00014196
122 *160:18 *233:176 5.20619e-06
123 *169:47 *233:12 5.3304e-05
124 *171:40 *233:12 8.72892e-05
125 *172:16 *1168:CLK 0.00022668
126 *172:16 *233:12 0.00020402
127 *172:16 *233:19 7.12679e-05
128 *172:16 *233:133 0.000238258
129 *172:16 *233:137 2.64616e-05
130 *172:22 *1168:CLK 0.000147973
131 *173:20 *233:47 0.000517104
132 *174:108 *233:12 0.000378943
133 *201:110 *1161:CLK 0.000649592
134 *202:27 *233:12 1.81643e-05
135 *205:61 *233:59 0.000166911
136 *207:46 *233:143 0.000791991
137 *207:46 *233:176 0.000205152
138 *207:46 *233:189 0.000174256
139 *208:81 *233:169 0.000201643
140 *230:61 *1168:CLK 2.43822e-05
141 *231:12 *233:77 0.00016205
142 *231:12 *233:90 7.44856e-05
*RES
1 *1186:X *233:6 38 
2 *233:6 *233:12 30.1629 
3 *233:12 *1173:CLK 23 
4 *233:6 *233:19 1.20143 
5 *233:19 *233:23 23.7207 
6 *233:23 *233:27 19.9093 
7 *233:27 *233:41 23.1363 
8 *233:41 *233:47 31.3643 
9 *233:47 *233:51 20.075 
10 *233:51 *233:53 3.66643 
11 *233:53 *233:59 33.2286 
12 *233:59 *1179:CLK 23 
13 *233:53 *1181:CLK 38 
14 *233:51 *233:77 24.6943 
15 *233:77 *1174:CLK 23 
16 *233:77 *233:90 40.3364 
17 *233:90 *1170:CLK 35.5529 
18 *233:47 *1175:CLK 23 
19 *233:41 *1163:CLK 38 
20 *233:27 *233:117 30.6807 
21 *233:117 *1183:CLK 23 
22 *233:23 *1160:CLK 23.8493 
23 *233:19 *233:133 18.6664 
24 *233:133 *233:137 7.31214 
25 *233:137 *233:143 27.5114 
26 *233:143 *233:147 23.7207 
27 *233:147 *1184:CLK 23 
28 *233:147 *233:154 1.09786 
29 *233:154 *1169:CLK 30.3121 
30 *233:154 *233:169 32.9621 
31 *233:169 *1171:CLK 23 
32 *233:143 *233:176 2.96214 
33 *233:176 *1161:CLK 45.2914 
34 *233:176 *233:189 28.8786 
35 *233:189 *1180:CLK 23 
36 *233:137 *1157:CLK 23 
37 *233:133 *1168:CLK 32.6736 
*END

*D_NET *234 0.0335526
*CONN
*I *1165:CLK I *D sky130_fd_sc_hd__dfxtp_1
*I *1176:CLK I *D sky130_fd_sc_hd__dfxtp_1
*I *1178:CLK I *D sky130_fd_sc_hd__dfxtp_1
*I *1188:A I *D sky130_fd_sc_hd__bufinv_16
*I *1158:CLK I *D sky130_fd_sc_hd__dfxtp_1
*I *1159:CLK I *D sky130_fd_sc_hd__dfxtp_1
*I *1162:CLK I *D sky130_fd_sc_hd__dfxtp_1
*I *1166:CLK I *D sky130_fd_sc_hd__dfxtp_1
*I *1182:CLK I *D sky130_fd_sc_hd__dfrtp_2
*I *1177:CLK I *D sky130_fd_sc_hd__dfxtp_1
*I *1167:CLK I *D sky130_fd_sc_hd__dfxtp_1
*I *1164:CLK I *D sky130_fd_sc_hd__dfxtp_1
*I *1172:CLK I *D sky130_fd_sc_hd__dfxtp_1
*I *1187:X O *D sky130_fd_sc_hd__clkbuf_16
*CAP
1 *1165:CLK 0.000199762
2 *1176:CLK 0
3 *1178:CLK 4.00162e-05
4 *1188:A 0
5 *1158:CLK 0
6 *1159:CLK 0
7 *1162:CLK 0
8 *1166:CLK 0
9 *1182:CLK 2.1713e-05
10 *1177:CLK 0
11 *1167:CLK 0
12 *1164:CLK 0.000424626
13 *1172:CLK 6.50505e-05
14 *1187:X 3.63616e-05
15 *234:173 0.000294346
16 *234:163 0.00170522
17 *234:148 0.00149459
18 *234:134 0.000674554
19 *234:121 0.000866192
20 *234:112 0.00114546
21 *234:95 0.00136713
22 *234:93 0.000424157
23 *234:91 0.000574377
24 *234:73 0.000518171
25 *234:65 0.00105199
26 *234:50 0.000490698
27 *234:31 0.00120023
28 *234:18 0.00102733
29 *234:16 0.00207623
30 *234:8 0.00124319
31 *1164:CLK *236:110 0.000121054
32 *1164:CLK *259:8 2.69681e-05
33 *1164:CLK *260:46 0.000299621
34 *1165:CLK *247:54 0
35 *234:16 *265:53 8.54148e-05
36 *234:18 *236:100 0.00030995
37 *234:31 *236:100 0.000181968
38 *234:50 *236:110 2.43944e-05
39 *234:50 *236:119 0.000275197
40 *234:50 *239:70 0
41 *234:50 *260:46 0.000874852
42 *234:91 *247:44 0.000609547
43 *234:93 *247:44 5.56279e-05
44 *234:95 *244:8 0.00015009
45 *234:95 *247:44 5.79559e-05
46 *234:148 *247:44 4.0079e-05
47 *234:163 *247:54 6.42789e-05
48 *234:163 *252:84 3.59414e-05
49 *961:A *234:134 0.000788891
50 *972:A2 *234:163 3.691e-05
51 *972:C1 *234:163 0.000385463
52 *973:B1 *234:173 0
53 *1117:C *234:16 0
54 *1182:D *1182:CLK 2.1819e-05
55 *1182:D *234:65 0.000401957
56 *24:8 *234:16 0.000105559
57 *24:24 *234:16 7.79135e-05
58 *25:18 *234:112 3.09232e-05
59 *27:20 *1164:CLK 0.000128783
60 *29:38 *234:95 8.1228e-05
61 *31:26 *234:95 4.9662e-05
62 *32:36 *234:18 0.000147441
63 *34:10 *234:112 0.000214416
64 *35:14 *234:16 0
65 *35:14 *234:18 0
66 *40:22 *234:73 1.64354e-05
67 *41:22 *234:73 0
68 *41:22 *234:163 0.000576992
69 *45:24 *234:65 9.90311e-05
70 *48:32 *234:18 0.000148075
71 *55:14 *234:18 0
72 *55:14 *234:65 3.14005e-05
73 *56:14 *234:73 0.000174069
74 *57:14 *234:173 0
75 *63:28 *234:16 0.000196285
76 *65:30 *234:65 0.000396836
77 *65:30 *234:73 6.56284e-05
78 *71:18 *234:95 0.000184126
79 *77:35 *234:148 0.000133941
80 *77:35 *234:163 5.79489e-05
81 *77:87 *234:134 5.3304e-05
82 *77:109 *234:91 4.99354e-05
83 *77:178 *234:73 0.000202089
84 *78:16 *234:73 0.000340818
85 *78:67 *1178:CLK 4.96303e-05
86 *78:67 *234:163 1.5526e-05
87 *81:88 *234:16 0.000170521
88 *81:132 *234:73 0.000394764
89 *82:62 *1164:CLK 6.29725e-05
90 *83:30 *234:148 9.03084e-05
91 *83:42 *234:148 0.000128291
92 *83:82 *234:163 0.00018118
93 *84:46 *234:8 1.05441e-05
94 *84:46 *234:16 0
95 *90:34 *234:91 3.54759e-05
96 *90:42 *1178:CLK 9.65021e-05
97 *90:42 *234:163 0.000138607
98 *95:73 *234:163 0.00010696
99 *96:10 *234:18 7.68979e-05
100 *99:26 *234:112 0.000160843
101 *99:43 *234:112 0.000759577
102 *99:43 *234:121 0.000199919
103 *99:43 *234:134 1.05441e-05
104 *104:10 *234:134 6.64565e-05
105 *108:65 *234:173 5.10227e-05
106 *109:64 *234:163 5.3304e-05
107 *110:78 *234:163 0.000185371
108 *111:10 *1165:CLK 5.3304e-05
109 *111:10 *234:163 5.56279e-05
110 *111:10 *234:173 0.000278994
111 *116:39 *234:173 9.95589e-06
112 *118:14 *1172:CLK 3.26088e-05
113 *118:14 *234:18 3.04456e-05
114 *118:14 *234:31 1.09111e-05
115 *125:20 *234:65 5.1986e-06
116 *128:44 *234:121 9.28078e-06
117 *128:44 *234:134 0.000583089
118 *129:26 *234:121 2.36519e-05
119 *145:27 *1182:CLK 5.3304e-05
120 *145:27 *234:65 1.71761e-05
121 *145:94 *234:134 2.33679e-05
122 *146:8 *234:148 0.000250283
123 *146:8 *234:163 4.86681e-05
124 *149:28 *234:31 4.67236e-05
125 *156:18 *234:16 5.64582e-05
126 *158:26 *234:112 8.70684e-05
127 *165:6 *234:163 0.000444212
128 *170:43 *234:134 7.01566e-05
129 *174:83 *234:112 0.000115987
130 *174:108 *234:112 1.3523e-05
131 *177:18 *234:148 4.95487e-06
132 *183:46 *234:18 9.41618e-05
133 *186:26 *234:31 5.08422e-06
134 *187:30 *234:31 4.89546e-05
135 *191:16 *234:31 0.00018663
136 *191:64 *234:73 9.86551e-06
137 *191:87 *234:8 4.30894e-05
138 *191:87 *234:16 8.11914e-06
139 *191:87 *234:91 0.000158289
140 *191:177 *234:163 0.000502835
141 *192:18 *234:91 8.29713e-05
142 *192:18 *234:93 4.44329e-05
143 *192:18 *234:95 0.000263534
144 *198:10 *1164:CLK 0.000190871
145 *198:16 *234:16 0
146 *198:16 *234:31 0
147 *198:28 *234:8 1.33899e-05
148 *198:28 *234:91 5.3316e-05
149 *201:52 *234:95 6.17437e-06
150 *201:52 *234:112 2.69859e-05
151 *209:63 *234:16 9.03137e-05
152 *210:53 *234:112 8.26999e-05
153 *210:53 *234:134 9.23705e-06
154 *216:14 *234:50 0
155 *223:34 *234:173 0.000178913
156 *227:53 *234:91 0.000234715
157 *231:20 *234:16 0
158 *231:28 *234:16 0.000403938
159 *231:28 *234:65 9.1653e-05
*RES
1 *1187:X *234:8 38.6732 
2 *234:8 *234:16 29.7498 
3 *234:16 *234:18 10.3571 
4 *234:18 *1172:CLK 39.0979 
5 *234:18 *234:31 20.7793 
6 *234:31 *1164:CLK 33.7921 
7 *234:31 *234:50 42.6357 
8 *234:50 *1167:CLK 23 
9 *234:16 *234:65 25.6471 
10 *234:65 *234:73 41.8071 
11 *234:73 *1177:CLK 23 
12 *234:65 *1182:CLK 23.6214 
13 *234:8 *234:91 23.8968 
14 *234:91 *234:93 0.621429 
15 *234:93 *234:95 8.72071 
16 *234:95 *1166:CLK 23 
17 *234:95 *234:112 32.6693 
18 *234:112 *1162:CLK 38 
19 *234:112 *234:121 2.96214 
20 *234:121 *1159:CLK 38 
21 *234:121 *234:134 29.4171 
22 *234:134 *1158:CLK 23 
23 *234:93 *1188:A 23 
24 *234:91 *234:148 20.4271 
25 *234:148 *1178:CLK 39.0979 
26 *234:148 *234:163 40.7686 
27 *234:163 *234:173 36.1936 
28 *234:173 *1176:CLK 23 
29 *234:163 *1165:CLK 26.0243 
*END

*D_NET *235 0.032221
*CONN
*I *941:A I *D sky130_fd_sc_hd__clkbuf_4
*I *950:B I *D sky130_fd_sc_hd__nor3b_2
*I *1003:B I *D sky130_fd_sc_hd__and4b_1
*I *975:B I *D sky130_fd_sc_hd__and4b_1
*I *1182:Q O *D sky130_fd_sc_hd__dfrtp_2
*CAP
1 *941:A 4.55063e-05
2 *950:B 0.000616965
3 *1003:B 0
4 *975:B 0
5 *1182:Q 0.000332093
6 *235:98 0.00239936
7 *235:82 0.00218756
8 *235:74 0.00144563
9 *235:60 0.00249028
10 *235:54 0.00324619
11 *235:31 0.00220045
12 *235:20 0.000761705
13 *235:10 0.00145236
14 *950:B *236:33 1.75582e-05
15 *235:10 *250:68 0.000124387
16 *235:31 *239:70 5.03825e-07
17 *235:31 *239:76 9.78317e-06
18 *235:31 *267:14 0.000130861
19 *235:54 *1117:D_N 5.96737e-06
20 *235:54 *239:76 7.23684e-06
21 *235:54 *239:93 8.06788e-05
22 *235:54 *267:14 4.66905e-05
23 *235:60 *267:14 0.000706972
24 *235:82 *267:38 9.43689e-05
25 *235:98 *236:33 0.000128799
26 *235:98 *247:71 8.732e-05
27 *235:98 *251:34 3.24898e-05
28 *235:98 *254:20 8.732e-05
29 *1002:A1 *235:82 0
30 *1015:A *235:74 0.000452727
31 *1127:A *235:20 0.000178227
32 *1140:B *950:B 5.3304e-05
33 *1143:A *235:20 2.0576e-05
34 *1182:RESET_B *235:10 6.39489e-05
35 *33:8 *235:20 0.000584331
36 *57:36 *235:54 4.05253e-05
37 *58:22 *235:74 0.00112551
38 *58:30 *235:60 0.000456705
39 *64:30 *950:B 9.41704e-05
40 *64:51 *235:82 0.000120245
41 *65:8 *941:A 9.92992e-06
42 *65:8 *235:60 4.98931e-05
43 *65:8 *235:74 1.8809e-05
44 *65:18 *235:54 0.00018717
45 *70:32 *235:20 3.35075e-05
46 *71:69 *235:74 4.4861e-06
47 *77:55 *235:82 0.000767399
48 *77:87 *235:74 6.51336e-05
49 *77:121 *235:31 0.000172549
50 *77:131 *235:20 0.000480988
51 *77:131 *235:31 3.73771e-05
52 *77:145 *235:20 0.000112143
53 *78:51 *235:54 0.000317905
54 *78:84 *235:54 0.000463475
55 *80:36 *235:54 4.51815e-05
56 *81:12 *235:54 0.00012361
57 *81:132 *235:20 1.61501e-05
58 *81:132 *235:31 4.10426e-05
59 *81:142 *235:10 0.000342063
60 *83:8 *235:74 9.28078e-06
61 *83:10 *235:74 2.05503e-05
62 *84:22 *235:60 8.11987e-05
63 *85:20 *235:98 0.000113346
64 *85:57 *235:54 1.79829e-05
65 *85:57 *235:98 0.000221337
66 *87:26 *235:74 9.07097e-05
67 *93:37 *235:82 0.000939861
68 *125:20 *235:20 0
69 *127:37 *235:20 0
70 *127:37 *235:31 0
71 *131:32 *235:54 0.000103474
72 *136:24 *235:74 0.00110189
73 *145:27 *235:20 0.000585344
74 *145:27 *235:31 4.89731e-05
75 *154:8 *235:74 8.20834e-05
76 *163:34 *950:B 0.000431872
77 *179:32 *235:54 2.05503e-05
78 *185:20 *235:98 0.00015005
79 *194:10 *235:60 0.00105269
80 *200:28 *235:54 0.00137883
81 *210:53 *235:74 0.000341113
82 *228:24 *235:98 0.00012361
83 *230:55 *235:98 8.81675e-05
*RES
1 *1182:Q *235:10 44.96 
2 *235:10 *235:20 32.9593 
3 *235:20 *975:B 23 
4 *235:10 *235:31 6.54571 
5 *235:31 *1003:B 38 
6 *235:31 *235:54 37.8812 
7 *235:54 *235:60 41.737 
8 *235:60 *235:74 45.1082 
9 *235:74 *235:82 42.3561 
10 *235:82 *235:98 36.8084 
11 *235:98 *950:B 47.8393 
12 *235:60 *941:A 24.0409 
*END

*D_NET *236 0.0440242
*CONN
*I *977:B I *D sky130_fd_sc_hd__nand2b_2
*I *952:A_N I *D sky130_fd_sc_hd__and4bb_1
*I *949:A_N I *D sky130_fd_sc_hd__nand3b_4
*I *1002:A0 I *D sky130_fd_sc_hd__mux2_2
*I *1007:A_N I *D sky130_fd_sc_hd__and4b_1
*I *1003:A_N I *D sky130_fd_sc_hd__and4b_1
*I *940:A I *D sky130_fd_sc_hd__clkbuf_4
*I *955:B I *D sky130_fd_sc_hd__and2b_1
*I *975:A_N I *D sky130_fd_sc_hd__and4b_1
*I *950:C_N I *D sky130_fd_sc_hd__nor3b_2
*I *1183:Q O *D sky130_fd_sc_hd__dfrtp_4
*CAP
1 *977:B 0
2 *952:A_N 0
3 *949:A_N 4.52914e-05
4 *1002:A0 0.000175432
5 *1007:A_N 2.39682e-05
6 *1003:A_N 0
7 *940:A 0
8 *955:B 0
9 *975:A_N 3.62579e-05
10 *950:C_N 2.34481e-05
11 *1183:Q 0.000169892
12 *236:207 0.000469888
13 *236:194 0.00129581
14 *236:173 0.00106165
15 *236:156 0.0011428
16 *236:134 0.0007824
17 *236:119 0.00186692
18 *236:110 0.000718322
19 *236:100 0.00366987
20 *236:73 0.00141913
21 *236:69 0.00163931
22 *236:49 0.00273414
23 *236:39 0.00161761
24 *236:33 0.00265596
25 *236:12 0.00110912
26 *236:8 0.000359502
27 *236:12 *255:71 0.000341983
28 *236:33 *255:71 0.00017761
29 *236:39 *247:36 4.34876e-05
30 *236:39 *251:34 9.10938e-05
31 *236:69 *259:14 8.53388e-05
32 *236:119 *260:46 4.73234e-05
33 *236:134 *1117:D_N 0.00022708
34 *236:134 *238:62 6.71148e-05
35 *236:134 *239:76 2.33476e-05
36 *236:134 *257:37 6.09613e-06
37 *236:156 *251:34 0.000431298
38 *236:194 *271:43 0.000484894
39 *236:194 *271:68 0.000211973
40 *236:207 *1020:A 0.000523167
41 *236:207 *237:78 0.00015757
42 *950:B *236:33 1.75582e-05
43 *959:A3 *1002:A0 9.41704e-05
44 *1007:D *236:39 5.05005e-05
45 *1144:S *1002:A0 4.96207e-05
46 *1160:D *236:12 1.64354e-05
47 *1164:CLK *236:110 0.000121054
48 *1169:D *236:156 0.000146267
49 *1185:A *236:39 6.08617e-05
50 *1186:A *236:39 6.24593e-05
51 *24:24 *236:134 5.45558e-05
52 *24:30 *236:8 0.000361165
53 *25:6 *1007:A_N 5.3304e-05
54 *25:6 *236:39 0.0011826
55 *32:52 *236:39 0.000260856
56 *32:52 *236:156 0.000328387
57 *33:8 *975:A_N 1.75562e-05
58 *33:8 *236:100 5.3304e-05
59 *33:16 *236:100 6.57815e-06
60 *34:10 *236:39 2.46462e-05
61 *43:26 *236:156 0
62 *44:22 *236:69 3.17911e-05
63 *46:20 *1002:A0 0.000136172
64 *46:20 *236:156 0.000602719
65 *49:110 *236:110 0.000228909
66 *53:10 *236:110 0.000269775
67 *55:14 *236:100 0
68 *56:14 *236:134 2.33476e-05
69 *62:14 *236:39 9.41704e-05
70 *64:66 *236:69 0.000125405
71 *67:32 *1002:A0 1.05364e-05
72 *69:8 *236:33 2.43944e-05
73 *77:35 *236:49 5.43589e-05
74 *77:160 *236:110 4.86272e-05
75 *78:30 *236:134 1.98035e-05
76 *81:28 *236:156 0.000257439
77 *81:28 *236:173 0.000416069
78 *81:72 *236:134 8.63073e-06
79 *83:42 *236:49 0.000124188
80 *83:42 *236:69 2.30481e-05
81 *83:61 *236:49 1.05887e-05
82 *83:82 *1007:A_N 2.02872e-05
83 *83:82 *236:39 9.21573e-05
84 *84:22 *236:207 0
85 *84:67 *236:49 2.64768e-05
86 *84:67 *236:134 6.77129e-05
87 *88:12 *949:A_N 9.78293e-05
88 *88:12 *236:194 0.000338337
89 *88:27 *236:194 0.000348358
90 *90:34 *236:49 0.000265928
91 *95:69 *236:69 0.000730733
92 *95:139 *236:100 0.000205438
93 *96:10 *236:100 7.68979e-05
94 *99:6 *236:39 0.000594794
95 *100:63 *236:69 2.24267e-05
96 *100:63 *236:134 1.91691e-05
97 *102:16 *236:33 2.46922e-05
98 *104:16 *236:8 0.000359008
99 *106:95 *236:33 2.26406e-05
100 *112:57 *236:69 7.0261e-05
101 *119:56 *236:33 0.000920478
102 *127:27 *236:119 0.000556546
103 *128:44 *949:A_N 1.32807e-05
104 *154:8 *236:194 2.83496e-05
105 *157:12 *236:69 4.67233e-05
106 *157:12 *236:134 0.000683132
107 *160:18 *236:156 0.000106927
108 *160:18 *236:173 0.000391213
109 *162:38 *236:39 0.000140931
110 *163:34 *236:33 2.02872e-05
111 *170:43 *949:A_N 7.07867e-05
112 *170:43 *236:194 0.000564481
113 *174:57 *236:194 5.5792e-05
114 *174:67 *236:194 9.66668e-05
115 *183:30 *236:73 0.000120984
116 *183:30 *236:100 1.34914e-05
117 *190:30 *236:110 5.14566e-05
118 *191:16 *236:100 0.000254614
119 *191:79 *236:134 2.50538e-05
120 *191:122 *236:39 0.000389027
121 *192:18 *236:49 9.57076e-05
122 *198:10 *236:110 0.000272372
123 *198:16 *236:69 2.63945e-05
124 *198:24 *236:49 2.38286e-05
125 *198:24 *236:69 3.63653e-05
126 *201:90 *236:207 0.000130971
127 *201:92 *236:194 3.60531e-05
128 *201:92 *236:207 0.000706795
129 *201:100 *236:194 0.000288652
130 *208:73 *236:194 0.000875461
131 *208:73 *236:207 0.000436139
132 *209:63 *236:49 0
133 *210:26 *236:39 0.000315018
134 *228:24 *236:33 0.000356183
135 *230:55 *236:39 0
136 *232:25 *236:39 6.94711e-05
137 *233:23 *236:12 1.05235e-05
138 *233:23 *236:33 2.35777e-05
139 *233:27 *236:12 5.90952e-05
140 *234:18 *236:100 0.00030995
141 *234:31 *236:100 0.000181968
142 *234:50 *236:110 2.43944e-05
143 *234:50 *236:119 0.000275197
144 *235:98 *236:33 0.000128799
*RES
1 *1183:Q *236:8 43.075 
2 *236:8 *236:12 18.9564 
3 *236:12 *950:C_N 23.4971 
4 *236:12 *236:33 36.7669 
5 *236:33 *236:39 40.4268 
6 *236:39 *236:49 25.2846 
7 *236:49 *236:69 37.6569 
8 *236:69 *236:73 18.9564 
9 *236:73 *975:A_N 23.8493 
10 *236:73 *236:100 47.0479 
11 *236:100 *236:110 42.4286 
12 *236:110 *955:B 23 
13 *236:100 *236:119 27.3221 
14 *236:119 *940:A 23 
15 *236:49 *236:134 33.1803 
16 *236:134 *1003:A_N 23 
17 *236:39 *1007:A_N 23.6214 
18 *236:33 *236:156 23.2249 
19 *236:156 *1002:A0 49.1796 
20 *236:156 *236:173 8.8288 
21 *236:173 *949:A_N 39.3775 
22 *236:173 *236:194 38.3761 
23 *236:194 *952:A_N 23 
24 *236:194 *236:207 43.8371 
25 *236:207 *977:B 23 
*END

*D_NET *237 0.0197287
*CONN
*I *977:A_N I *D sky130_fd_sc_hd__nand2b_2
*I *935:A I *D sky130_fd_sc_hd__clkbuf_4
*I *950:A I *D sky130_fd_sc_hd__nor3b_2
*I *1184:Q O *D sky130_fd_sc_hd__dfrtp_1
*CAP
1 *977:A_N 0
2 *935:A 7.90157e-05
3 *950:A 0.000214407
4 *1184:Q 0.000656608
5 *237:78 0.00124681
6 *237:63 0.000569866
7 *237:53 0.00173766
8 *237:51 0.000182054
9 *237:43 0.000701085
10 *237:31 0.00138688
11 *237:18 0.00116322
12 *237:14 0.000737572
13 *935:A *241:8 0.00022034
14 *950:A *252:48 0.000202603
15 *237:31 *262:12 0.000989594
16 *237:31 *262:45 0.000636645
17 *237:51 *268:41 1.21972e-05
18 *237:63 *257:37 0.000267029
19 *237:63 *268:41 7.48945e-06
20 *237:78 *257:18 0.00152362
21 *237:78 *257:37 0.000193559
22 *237:78 *271:74 4.67488e-05
23 *1064:B *237:31 0.000222607
24 *1072:A *935:A 0.000222664
25 *1078:A2 *237:31 0.000135037
26 *1184:RESET_B *237:14 0.000132736
27 *32:52 *237:31 0.000137361
28 *37:10 *950:A 0.000346819
29 *37:10 *237:14 0.00013009
30 *37:10 *237:18 7.10124e-05
31 *71:43 *237:43 0.000125942
32 *77:35 *237:43 0.000556735
33 *77:43 *237:43 0.000128032
34 *81:72 *237:78 0.000150509
35 *83:82 *237:63 0.000177871
36 *83:94 *237:63 6.9663e-05
37 *83:94 *237:78 5.05605e-05
38 *89:10 *950:A 5.64582e-05
39 *95:73 *237:63 0.00021677
40 *98:91 *237:78 0.000447616
41 *99:43 *237:31 9.65021e-05
42 *102:16 *237:14 0.000153557
43 *106:95 *950:A 3.65789e-05
44 *106:95 *237:14 0.000143512
45 *106:95 *237:18 2.25368e-05
46 *119:30 *237:78 6.77278e-05
47 *120:105 *237:78 6.03002e-05
48 *127:53 *237:78 1.00438e-05
49 *132:10 *237:14 0.000128032
50 *155:80 *237:43 2.22168e-05
51 *155:82 *237:43 6.05038e-05
52 *155:82 *237:51 0.000398082
53 *158:26 *237:51 1.26599e-05
54 *165:16 *237:43 5.53384e-05
55 *165:16 *237:51 1.59909e-05
56 *172:22 *237:43 0.000684397
57 *173:38 *237:43 0.000117538
58 *174:6 *237:51 9.77405e-05
59 *174:41 *237:78 9.41704e-05
60 *178:67 *237:51 4.53978e-05
61 *191:177 *237:63 5.43589e-05
62 *198:28 *237:63 0.000169981
63 *201:72 *237:78 7.05024e-05
64 *202:14 *237:31 0.00063084
65 *206:57 *237:43 6.06323e-05
66 *206:57 *237:51 4.42081e-05
67 *225:10 *237:78 0
68 *233:147 *237:14 6.43031e-05
69 *236:207 *237:78 0.00015757
*RES
1 *1184:Q *237:14 49.6104 
2 *237:14 *237:18 1.64679 
3 *237:18 *950:A 43.075 
4 *237:18 *237:31 37.5371 
5 *237:31 *237:43 44.0029 
6 *237:43 *237:51 35.2821 
7 *237:51 *237:53 15 
8 *237:53 *237:63 39.1557 
9 *237:63 *935:A 40.5271 
10 *237:53 *237:78 41.245 
11 *237:78 *977:A_N 23 
*END

*D_NET *238 0.0333307
*CONN
*I *1154:A I *D sky130_fd_sc_hd__inv_2
*I *1155:A I *D sky130_fd_sc_hd__inv_2
*I *1156:A I *D sky130_fd_sc_hd__inv_2
*I *1189:X O *D sky130_fd_sc_hd__clkbuf_2
*CAP
1 *1154:A 0
2 *1155:A 0
3 *1156:A 0
4 *1189:X 0
5 *238:70 0.000941688
6 *238:62 0.00486299
7 *238:39 0.00535564
8 *238:22 0.000652399
9 *238:12 0.00331955
10 *238:6 0.00123281
11 *238:12 *271:20 0.000528535
12 *238:12 *271:24 0.00136444
13 *238:22 *1091:A0 5.3304e-05
14 *238:22 *271:20 0.000430738
15 *238:39 *265:22 0
16 *238:62 *1117:D_N 4.68631e-05
17 *238:70 *1004:A1 5.3304e-05
18 *238:70 *247:54 1.01436e-05
19 *238:70 *251:86 1.12858e-05
20 *238:70 *260:18 0.000135037
21 *238:70 *265:53 0.000204785
22 *1004:A2 *238:70 0.000309209
23 *19:8 *238:22 3.34355e-05
24 *24:24 *238:62 0.00322169
25 *40:22 *238:39 4.27314e-05
26 *42:10 *238:12 0.00209227
27 *42:10 *238:22 0.00150106
28 *53:20 *238:62 0.000222923
29 *63:28 *238:62 0.0026317
30 *71:14 *238:70 0.000268991
31 *71:18 *238:70 5.3304e-05
32 *78:51 *238:62 4.51815e-05
33 *88:70 *238:70 0.000339369
34 *104:16 *238:62 0.000199929
35 *108:30 *238:12 0.00015466
36 *110:105 *238:70 4.44552e-05
37 *116:78 *238:62 0.00018736
38 *126:56 *238:62 0.000150513
39 *131:32 *238:62 0.000537511
40 *139:35 *238:12 0
41 *142:14 *238:70 0.000189414
42 *191:34 *238:22 0.000184009
43 *191:79 *238:62 8.43956e-05
44 *197:22 *238:70 0.000136738
45 *200:14 *238:12 2.46922e-05
46 *211:18 *238:12 5.24145e-05
47 *213:16 *238:39 5.56279e-05
48 *213:16 *238:62 1.41129e-05
49 *216:20 *238:22 5.75756e-06
50 *216:37 *238:22 0.000392519
51 *216:64 *238:62 4.51815e-05
52 *220:6 *238:22 2.95526e-05
53 *221:43 *238:12 0.000300664
54 *221:43 *238:22 0.000265953
55 *224:8 *238:70 2.43944e-05
56 *230:26 *238:62 0.000197208
57 *233:47 *238:39 2.11157e-05
58 *236:134 *238:62 6.71148e-05
*RES
1 *1189:X *238:6 38 
2 *238:6 *238:12 41.9361 
3 *238:12 *238:22 38.6868 
4 *238:22 *1156:A 23 
5 *238:12 *238:39 34.3169 
6 *238:39 *1155:A 23 
7 *238:39 *238:62 47.1129 
8 *238:62 *238:70 33.3011 
9 *238:70 *1154:A 23 
*END

*D_NET *239 0.0466263
*CONN
*I *1142:B I *D sky130_fd_sc_hd__and3_1
*I *1130:B I *D sky130_fd_sc_hd__nand3_1
*I *943:A I *D sky130_fd_sc_hd__and3_1
*I *1105:A I *D sky130_fd_sc_hd__and3_1
*I *945:A1 I *D sky130_fd_sc_hd__a21oi_1
*I *1117:D_N I *D sky130_fd_sc_hd__or4b_1
*I *947:A I *D sky130_fd_sc_hd__xor2_1
*I *1083:A I *D sky130_fd_sc_hd__and2_1
*I *1190:X O *D sky130_fd_sc_hd__buf_2
*CAP
1 *1142:B 0.000361255
2 *1130:B 0.000226604
3 *943:A 4.16508e-05
4 *1105:A 0
5 *945:A1 0
6 *1117:D_N 0.000270677
7 *947:A 0
8 *1083:A 0.000103021
9 *1190:X 0.000615091
10 *239:159 0.00179002
11 *239:130 0.000658908
12 *239:109 0.000912701
13 *239:93 0.00213762
14 *239:76 0.000965629
15 *239:70 0.00189125
16 *239:58 0.00305861
17 *239:56 0.00198211
18 *239:50 0.00103473
19 *239:39 0.000750703
20 *239:37 0.00105499
21 *239:22 0.00115438
22 *239:10 0.000831501
23 *239:8 0.00220896
24 *1117:D_N *257:37 6.56284e-05
25 *1130:B *249:33 5.08284e-05
26 *239:10 *249:33 0.000524783
27 *239:37 *250:25 0.000506341
28 *239:37 *265:22 2.07509e-05
29 *239:109 *252:84 5.96882e-05
30 *239:130 *242:24 0.000398327
31 *239:130 *250:78 4.30894e-05
32 *239:159 *249:33 0.000871437
33 *239:159 *249:48 0.00130443
34 *239:159 *266:28 8.77208e-05
35 *239:159 *266:51 0
36 *947:B *239:50 2.02872e-05
37 *947:B *239:56 8.32612e-05
38 *1018:A *1117:D_N 5.3304e-05
39 *1023:A1 *239:8 3.7122e-06
40 *1105:C *239:130 2.13713e-05
41 *19:14 *239:37 0.000313802
42 *23:12 *239:70 0
43 *23:26 *239:58 0.00182288
44 *28:26 *239:58 0.00401332
45 *41:22 *1117:D_N 6.80197e-05
46 *48:12 *239:93 2.25121e-05
47 *53:20 *239:56 7.27568e-05
48 *56:14 *239:70 0.000621484
49 *56:14 *239:76 3.1125e-05
50 *57:36 *1117:D_N 5.61625e-06
51 *57:36 *239:70 7.13651e-05
52 *57:36 *239:93 7.69806e-05
53 *57:36 *239:109 2.18546e-05
54 *61:8 *239:70 0.000701171
55 *64:66 *239:109 0.000498603
56 *72:14 *239:10 0
57 *72:14 *239:22 0.000195251
58 *77:121 *239:70 0.000109179
59 *77:131 *239:70 0.000749318
60 *78:36 *239:70 0
61 *78:51 *1117:D_N 4.82958e-05
62 *81:100 *1130:B 6.58043e-05
63 *82:66 *239:56 0
64 *82:100 *1130:B 5.54435e-05
65 *82:135 *239:109 0.000276639
66 *82:135 *239:130 8.79977e-05
67 *84:130 *239:130 1.47795e-05
68 *84:147 *239:130 3.06803e-05
69 *88:70 *239:109 0.000464964
70 *89:44 *239:130 4.51797e-05
71 *100:63 *1117:D_N 1.1267e-06
72 *100:77 *239:130 0.000137134
73 *101:26 *239:8 0.000281711
74 *109:22 *239:22 0.000403608
75 *109:30 *239:159 1.31099e-05
76 *109:64 *239:109 7.22049e-05
77 *109:100 *239:159 2.05503e-05
78 *113:84 *239:93 0.000258668
79 *113:84 *239:130 0.000404506
80 *127:37 *239:70 0
81 *127:37 *239:93 8.91337e-05
82 *130:76 *239:93 0.000177312
83 *131:14 *239:93 7.87134e-05
84 *131:14 *239:130 0.00014342
85 *131:32 *1117:D_N 8.78604e-05
86 *131:32 *239:93 0.000544394
87 *134:31 *239:39 5.07687e-05
88 *134:31 *239:50 9.8592e-06
89 *134:37 *943:A 2.02872e-05
90 *134:37 *239:50 0.000463874
91 *139:18 *239:22 0.000126934
92 *139:35 *239:159 0
93 *140:10 *239:37 0.00100902
94 *145:16 *239:70 0.000150335
95 *145:27 *239:70 7.48073e-05
96 *152:42 *1142:B 0.000542819
97 *153:12 *239:159 0
98 *153:20 *239:10 0.000486242
99 *153:20 *239:159 0.000747085
100 *153:26 *1130:B 1.13812e-05
101 *155:126 *239:109 5.83322e-05
102 *161:42 *239:56 3.71947e-05
103 *178:71 *239:109 1.59094e-05
104 *179:32 *239:76 7.11277e-05
105 *180:6 *239:130 0.000704573
106 *180:65 *239:56 0
107 *182:24 *239:56 7.71855e-05
108 *190:12 *239:159 0
109 *191:79 *1117:D_N 2.55744e-05
110 *193:8 *239:109 0.000642471
111 *215:8 *239:22 9.77405e-05
112 *215:12 *239:37 0.000105318
113 *218:22 *1117:D_N 5.3304e-05
114 *227:18 *239:39 0.00105706
115 *227:18 *239:50 9.91548e-05
116 *229:12 *239:39 0.000122681
117 *234:50 *239:70 0
118 *235:31 *239:70 5.03825e-07
119 *235:31 *239:76 9.78317e-06
120 *235:54 *1117:D_N 5.96737e-06
121 *235:54 *239:76 7.23684e-06
122 *235:54 *239:93 8.06788e-05
123 *236:134 *1117:D_N 0.00022708
124 *236:134 *239:76 2.33476e-05
125 *238:62 *1117:D_N 4.68631e-05
*RES
1 *1190:X *239:8 45.2914 
2 *239:8 *239:10 7.01179 
3 *239:10 *239:22 26.1754 
4 *239:22 *1083:A 24.595 
5 *239:22 *239:37 49.1607 
6 *239:37 *239:39 12.0557 
7 *239:39 *947:A 23 
8 *239:39 *239:50 6.98071 
9 *239:50 *239:56 41.4136 
10 *239:56 *239:58 43.9764 
11 *239:58 *239:70 49.6032 
12 *239:70 *239:76 10.175 
13 *239:76 *1117:D_N 48.218 
14 *239:76 *239:93 1.77333 
15 *239:93 *239:109 43.0825 
16 *239:109 *945:A1 23 
17 *239:93 *239:130 34.4479 
18 *239:130 *1105:A 23 
19 *239:50 *943:A 23.6214 
20 *239:10 *1130:B 42.0496 
21 *239:8 *239:159 48.9507 
22 *239:159 *1142:B 28.8621 
*END

*D_NET *240 0.00909672
*CONN
*I *1191:A I *D sky130_fd_sc_hd__buf_1
*I *1065:Y O *D sky130_fd_sc_hd__xnor2_1
*CAP
1 *1191:A 0.000505022
2 *1065:Y 3.9278e-05
3 *240:10 0.0026709
4 *240:8 0.00220515
5 *240:10 *242:24 0.000485059
6 *240:10 *250:78 0.000297155
7 *240:10 *256:34 0.000612625
8 *240:10 *260:18 0
9 *973:B1 *1191:A 3.8178e-05
10 *988:C *240:10 0
11 *1005:A *1191:A 0.000146822
12 *64:12 *240:10 9.85586e-06
13 *82:12 *240:10 0.00123137
14 *89:44 *240:10 0.000445219
15 *112:8 *240:10 0.000196165
16 *121:44 *240:10 7.30875e-05
17 *144:8 *1191:A 5.3304e-05
18 *144:18 *240:10 0
19 *180:53 *240:8 5.73309e-05
20 *205:40 *240:10 2.33476e-05
21 *206:12 *240:10 6.84987e-06
22 *206:18 *240:10 0
*RES
1 *1065:Y *240:8 38.6214 
2 *240:8 *240:10 46.2757 
3 *240:10 *1191:A 46.1614 
*END

*D_NET *241 0.00574782
*CONN
*I *1192:A I *D sky130_fd_sc_hd__buf_1
*I *1072:Y O *D sky130_fd_sc_hd__nand2_1
*CAP
1 *1192:A 0.00069892
2 *1072:Y 0.000572348
3 *241:8 0.00127127
4 *1192:A *256:34 5.3304e-05
5 *935:A *241:8 0.00022034
6 *1072:A *241:8 8.55622e-05
7 *1128:A0 *1192:A 0.000564154
8 *1128:A0 *241:8 0.000346779
9 *1128:S *1192:A 0.000438941
10 *1131:A *1192:A 0.000129234
11 *50:18 *241:8 0.00114389
12 *62:6 *1192:A 6.27443e-05
13 *62:6 *241:8 8.27026e-05
14 *77:6 *241:8 1.02535e-05
15 *83:82 *241:8 7.51453e-06
16 *206:34 *241:8 5.98704e-05
*RES
1 *1072:Y *241:8 38.4114 
2 *241:8 *1192:A 37.4379 
*END

*D_NET *242 0.0131324
*CONN
*I *1193:A I *D sky130_fd_sc_hd__buf_1
*I *1074:Y O *D sky130_fd_sc_hd__o31ai_1
*CAP
1 *1193:A 0
2 *1074:Y 1.37766e-05
3 *242:24 0.0035633
4 *242:10 0.00357708
5 *242:24 *245:14 1.66677e-05
6 *242:24 *250:78 0.00013063
7 *242:24 *256:34 0.000485494
8 *57:14 *242:24 9.96816e-05
9 *65:18 *242:24 0.000133821
10 *82:135 *242:24 7.5475e-05
11 *83:94 *242:24 0.000172574
12 *89:22 *242:24 0.00023858
13 *89:44 *242:24 0.000177188
14 *100:77 *242:24 0.000400651
15 *109:64 *242:24 0.000188335
16 *127:53 *242:24 0.000296752
17 *158:26 *242:24 0.000127063
18 *178:38 *242:24 0.000691414
19 *178:67 *242:24 0.000380812
20 *191:122 *242:10 1.27489e-05
21 *223:34 *242:24 0
22 *228:24 *242:24 0.000717589
23 *230:77 *242:24 0.000726746
24 *230:86 *242:10 2.26406e-05
25 *239:130 *242:24 0.000398327
26 *240:10 *242:24 0.000485059
*RES
1 *1074:Y *242:10 46.3211 
2 *242:10 *242:24 49.1021 
3 *242:24 *1193:A 23 
*END

*D_NET *243 0.020279
*CONN
*I *1194:A I *D sky130_fd_sc_hd__buf_1
*I *1076:X O *D sky130_fd_sc_hd__a31o_1
*CAP
1 *1194:A 0
2 *1076:X 2.34365e-05
3 *243:20 0.00461641
4 *243:10 0.00463984
5 *243:10 *249:14 4.77554e-05
6 *951:A *243:20 0.000136743
7 *26:28 *243:20 0.00028098
8 *26:34 *243:10 4.73652e-05
9 *44:22 *243:20 0.00520332
10 *48:32 *243:20 0.000476828
11 *78:30 *243:20 0.000170663
12 *80:36 *243:20 1.18829e-05
13 *82:12 *243:20 0.000427583
14 *83:48 *243:20 8.50366e-05
15 *88:78 *243:20 0
16 *89:44 *243:20 3.64337e-05
17 *89:48 *243:20 0.000394505
18 *90:8 *243:20 0.000521424
19 *94:18 *243:20 1.08929e-05
20 *95:30 *243:20 0.00133043
21 *95:45 *243:20 0.000504596
22 *95:53 *243:20 0.00043694
23 *95:139 *243:20 0.000444251
24 *121:34 *243:20 6.07266e-05
25 *131:32 *243:20 5.94746e-05
26 *131:44 *243:20 7.5122e-06
27 *183:46 *243:20 0.000303936
*RES
1 *1076:X *243:10 46.6732 
2 *243:10 *243:20 47.2383 
3 *243:20 *1194:A 23 
*END

*D_NET *244 0.0144192
*CONN
*I *1195:A I *D sky130_fd_sc_hd__buf_1
*I *1077:X O *D sky130_fd_sc_hd__a211o_1
*CAP
1 *1195:A 0
2 *1077:X 0.000568532
3 *244:16 0.00284285
4 *244:12 0.00371766
5 *244:8 0.00144334
6 *244:12 *247:18 0.00113644
7 *244:12 *248:23 1.09755e-05
8 *244:16 *976:A1 2.19764e-05
9 *976:A2 *244:16 9.41704e-05
10 *1006:A1 *244:16 0.000121615
11 *88:78 *244:16 0.000156496
12 *114:16 *244:16 0.0014012
13 *126:20 *244:16 0.00102386
14 *144:26 *244:16 5.13997e-05
15 *145:57 *244:12 5.77295e-05
16 *145:73 *244:12 0.000273978
17 *151:27 *244:12 1.42186e-05
18 *157:18 *244:12 0.00108522
19 *177:18 *244:12 1.26526e-05
20 *192:18 *244:8 6.17437e-06
21 *201:52 *244:8 9.58714e-05
22 *232:25 *244:12 0.000132749
23 *234:95 *244:8 0.00015009
*RES
1 *1077:X *244:8 44.815 
2 *244:8 *244:12 35.9214 
3 *244:12 *244:16 39.1086 
4 *244:16 *1195:A 23 
*END

*D_NET *245 0.0156544
*CONN
*I *1196:A I *D sky130_fd_sc_hd__buf_1
*I *1078:Y O *D sky130_fd_sc_hd__o31ai_2
*CAP
1 *1196:A 0.000136496
2 *1078:Y 1.36076e-05
3 *245:16 0.00124457
4 *245:14 0.00356173
5 *245:10 0.00246727
6 seg[0] *245:14 4.99403e-05
7 seg[4] *245:16 9.86551e-06
8 *1078:A3 *245:10 2.21614e-05
9 *56:26 *245:14 0.000421758
10 *83:94 *245:14 0.00171109
11 *84:147 *245:16 0.000309185
12 *106:37 *245:14 0
13 *116:60 *245:14 0.000151959
14 *127:53 *245:14 1.67025e-05
15 *128:12 *245:16 0.000432774
16 *158:26 *245:14 0.000322826
17 *166:16 *245:16 0.000191264
18 *166:28 *245:16 0.00135643
19 *180:31 *245:16 4.07715e-05
20 *183:46 *245:14 0.000212118
21 *184:12 *245:16 0.00281857
22 *186:14 *245:14 1.58796e-05
23 *196:31 *245:14 5.22242e-05
24 *196:41 *245:14 4.84113e-05
25 *221:12 *245:14 2.02784e-05
26 *227:71 *245:10 9.85586e-06
27 *242:24 *245:14 1.66677e-05
*RES
1 *1078:Y *245:10 46.3211 
2 *245:10 *245:14 14.0667 
3 *245:14 *245:16 42.9304 
4 *245:16 *1196:A 40.0507 
*END

*D_NET *246 0.00474679
*CONN
*I *1197:A I *D sky130_fd_sc_hd__buf_1
*I *1080:Y O *D sky130_fd_sc_hd__nand2_1
*CAP
1 *1197:A 0
2 *1080:Y 0
3 *246:10 0.000720663
4 *246:6 0.000720663
5 *28:30 *246:10 0
6 *128:12 *246:10 0.00155809
7 *166:16 *246:10 0
8 *180:39 *246:10 0.00174738
*RES
1 *1080:Y *246:6 38 
2 *246:6 *246:10 39.795 
3 *246:10 *1197:A 23 
*END

*D_NET *247 0.028799
*CONN
*I *1132:A I *D sky130_fd_sc_hd__and2_1
*I *948:A I *D sky130_fd_sc_hd__inv_2
*I *972:A1 I *D sky130_fd_sc_hd__o221a_1
*I *1172:Q O *D sky130_fd_sc_hd__dfxtp_1
*CAP
1 *1132:A 0
2 *948:A 7.60705e-05
3 *972:A1 0
4 *1172:Q 4.02304e-05
5 *247:88 0.000992151
6 *247:71 0.00399257
7 *247:54 0.000825795
8 *247:44 0.00153454
9 *247:36 0.00096672
10 *247:18 0.00462361
11 *247:8 0.00148151
12 *247:18 *248:23 0.000646622
13 *247:18 *248:31 0.000239697
14 *247:18 *259:71 0.00025057
15 *247:36 *259:71 2.26497e-05
16 *247:54 *251:86 0.000131579
17 *247:71 *254:20 0.000236209
18 *247:71 *254:45 0.000195004
19 *247:88 *270:8 1.24362e-05
20 *954:B_N *247:88 7.89237e-05
21 *972:A2 *247:54 0.000586609
22 *1007:D *247:36 4.29996e-06
23 *1146:S *247:54 0.00011527
24 *1165:CLK *247:54 0
25 *21:18 *247:18 2.16954e-05
26 *21:34 *247:18 0.00055602
27 *21:34 *247:71 0.00141132
28 *31:14 *247:18 0
29 *43:32 *948:A 0.000123085
30 *43:32 *247:88 0.00082396
31 *59:10 *247:8 5.58003e-05
32 *62:14 *247:36 9.65021e-05
33 *64:30 *247:36 8.76403e-05
34 *64:51 *247:88 1.50004e-05
35 *67:32 *247:71 5.19348e-05
36 *71:14 *247:54 1.12487e-05
37 *71:18 *247:44 0.00161889
38 *77:10 *247:36 0
39 *77:109 *247:44 2.43944e-05
40 *78:99 *247:88 0.000236102
41 *82:54 *247:18 2.04511e-05
42 *83:30 *247:36 9.00011e-05
43 *84:67 *247:18 4.51815e-05
44 *85:57 *247:71 0.000724333
45 *90:34 *247:44 7.01569e-05
46 *93:10 *247:88 1.24298e-05
47 *95:53 *247:18 2.05503e-05
48 *96:36 *948:A 1.13812e-05
49 *110:14 *948:A 2.52376e-05
50 *110:14 *247:88 6.84905e-05
51 *110:41 *247:71 7.20037e-05
52 *110:105 *247:44 1.21972e-05
53 *115:14 *247:18 0
54 *128:44 *247:71 0.000797856
55 *141:14 *247:71 0.00063092
56 *141:18 *247:71 3.66428e-05
57 *141:34 *247:18 0.000159018
58 *141:34 *247:71 0.000135153
59 *142:14 *247:44 9.17365e-05
60 *146:8 *247:44 1.05441e-05
61 *146:24 *247:71 0.0010874
62 *149:34 *247:18 2.40409e-05
63 *157:18 *247:18 9.19266e-05
64 *177:18 *247:44 0.000107909
65 *191:87 *247:44 0.000126137
66 *192:10 *247:36 2.33476e-05
67 *207:32 *247:88 0
68 *232:25 *247:36 1.24376e-05
69 *234:91 *247:44 0.000609547
70 *234:93 *247:44 5.56279e-05
71 *234:95 *247:44 5.79559e-05
72 *234:148 *247:44 4.0079e-05
73 *234:163 *247:54 6.42789e-05
74 *235:98 *247:71 8.732e-05
75 *236:39 *247:36 4.34876e-05
76 *238:70 *247:54 1.01436e-05
77 *244:12 *247:18 0.00113644
*RES
1 *1172:Q *247:8 38.6214 
2 *247:8 *247:18 38.6487 
3 *247:18 *247:36 49.5509 
4 *247:36 *247:44 49.8029 
5 *247:44 *247:54 28.0086 
6 *247:54 *972:A1 23 
7 *247:18 *247:71 24.3197 
8 *247:71 *948:A 39.7296 
9 *247:71 *247:88 34.7096 
10 *247:88 *1132:A 23 
*END

*D_NET *248 0.0158118
*CONN
*I *1134:A I *D sky130_fd_sc_hd__and2_1
*I *976:A1 I *D sky130_fd_sc_hd__a211o_2
*I *985:B2 I *D sky130_fd_sc_hd__o221a_1
*I *1173:Q O *D sky130_fd_sc_hd__dfxtp_1
*CAP
1 *1134:A 0
2 *976:A1 0.00031068
3 *985:B2 0
4 *1173:Q 0
5 *248:41 0.00119305
6 *248:31 0.00214481
7 *248:23 0.00221519
8 *248:12 0.000768553
9 *248:4 0.0017213
10 *248:23 *255:36 0.000277905
11 *248:23 *270:44 2.80822e-05
12 *976:A2 *976:A1 3.77412e-05
13 *1006:A3 *976:A1 0.000449822
14 *1025:A2 *248:23 3.12608e-05
15 *1033:B *248:12 0.00013347
16 *1134:B *248:31 2.26497e-05
17 *51:14 *248:31 0.0013237
18 *56:14 *248:41 0.000135257
19 *60:22 *248:41 0.000579082
20 *64:68 *248:31 0.000193085
21 *75:8 *248:23 2.98418e-05
22 *93:53 *248:23 0.000104778
23 *114:10 *248:41 0.000105559
24 *114:16 *976:A1 0.000209138
25 *115:8 *976:A1 0.000450434
26 *115:14 *248:23 1.45705e-05
27 *115:14 *248:31 9.78209e-06
28 *116:90 *248:12 0.000188864
29 *118:41 *976:A1 5.58003e-05
30 *119:75 *248:23 1.29848e-05
31 *127:37 *248:41 0.000128273
32 *144:26 *976:A1 0.00018304
33 *145:73 *248:23 9.28078e-06
34 *149:18 *248:41 0.000455492
35 *169:47 *248:12 0.000687962
36 *169:47 *248:23 0.00061606
37 *233:12 *248:12 6.50258e-05
38 *244:12 *248:23 1.09755e-05
39 *244:16 *976:A1 2.19764e-05
40 *247:18 *248:23 0.000646622
41 *247:18 *248:31 0.000239697
*RES
1 *1173:Q *248:4 23 
2 *248:4 *248:12 41.5793 
3 *248:12 *985:B2 23 
4 *248:4 *248:23 31.9443 
5 *248:23 *248:31 48.5807 
6 *248:31 *248:41 45.08 
7 *248:41 *976:A1 49.6 
8 *248:23 *1134:A 38 
*END

*D_NET *249 0.0166807
*CONN
*I *1008:A1 I *D sky130_fd_sc_hd__a211o_1
*I *1021:A1 I *D sky130_fd_sc_hd__a21oi_1
*I *1136:A I *D sky130_fd_sc_hd__and2_1
*I *1174:Q O *D sky130_fd_sc_hd__dfxtp_1
*CAP
1 *1008:A1 0
2 *1021:A1 0.000634598
3 *1136:A 0
4 *1174:Q 0.000134806
5 *249:54 0.000159191
6 *249:48 0.0011458
7 *249:33 0.00350087
8 *249:14 0.00111095
9 *249:8 0.00312542
10 *249:33 *255:83 0
11 *249:33 *265:10 0
12 *1130:B *249:33 5.08284e-05
13 *1184:RESET_B *1021:A1 0.000557021
14 *26:34 *249:14 0.000134931
15 *28:16 *249:33 0
16 *28:24 *249:14 0
17 *63:10 *249:33 0
18 *67:6 *249:14 0.000269165
19 *70:12 *249:48 0.000100139
20 *70:12 *249:54 4.15283e-06
21 *81:38 *249:48 5.68958e-05
22 *93:22 *249:33 7.95293e-05
23 *93:22 *249:48 0
24 *94:6 *249:14 0.000164335
25 *94:18 *249:14 0.000863906
26 *109:100 *1021:A1 8.11489e-05
27 *115:40 *249:33 5.09072e-05
28 *120:12 *249:33 0
29 *138:34 *249:14 9.28078e-06
30 *138:34 *249:33 0.000134561
31 *138:57 *249:33 0.000657176
32 *146:34 *249:54 3.36312e-06
33 *152:42 *249:48 0.000498137
34 *152:42 *249:54 0.00013553
35 *153:26 *249:33 5.92599e-05
36 *204:60 *249:14 0
37 *204:60 *249:33 0
38 *205:61 *249:14 0
39 *209:18 *249:14 2.37544e-05
40 *233:77 *249:8 0.000186606
41 *239:10 *249:33 0.000524783
42 *239:159 *249:33 0.000871437
43 *239:159 *249:48 0.00130443
44 *243:10 *249:14 4.77554e-05
*RES
1 *1174:Q *249:8 40.0507 
2 *249:8 *249:14 38.1379 
3 *249:14 *1136:A 23 
4 *249:8 *249:33 40.165 
5 *249:33 *1021:A1 46.2443 
6 *249:33 *249:48 38.49 
7 *249:48 *249:54 32.9621 
8 *249:54 *1008:A1 23 
*END

*D_NET *250 0.0275008
*CONN
*I *1004:A1 I *D sky130_fd_sc_hd__a211o_1
*I *1138:A I *D sky130_fd_sc_hd__and2_1
*I *1040:A0 I *D sky130_fd_sc_hd__mux2_1
*I *1175:Q O *D sky130_fd_sc_hd__dfxtp_1
*CAP
1 *1004:A1 2.32701e-05
2 *1138:A 8.39824e-05
3 *1040:A0 7.7674e-05
4 *1175:Q 0
5 *250:78 0.000674157
6 *250:68 0.00291292
7 *250:64 0.00379295
8 *250:52 0.00221831
9 *250:29 0.00168589
10 *250:25 0.0013809
11 *250:8 0.000525877
12 *250:4 0.000914592
13 *1040:A0 *255:83 9.79925e-05
14 *250:8 *271:20 0.00152668
15 *250:64 *255:28 0.000813879
16 *250:78 *260:18 2.91395e-05
17 *1116:A *250:64 0.000126023
18 *1139:A *250:52 0.00054014
19 *1182:RESET_B *250:68 0.000716596
20 *19:14 *250:25 0.000508572
21 *29:24 *250:64 0.000552522
22 *44:22 *250:29 2.54551e-05
23 *44:22 *250:52 0.000626027
24 *49:18 *250:52 0.00019585
25 *81:88 *250:68 0.000156523
26 *81:92 *250:64 5.24457e-05
27 *84:89 *250:52 0.000117578
28 *84:128 *250:78 4.95487e-06
29 *89:44 *250:78 0.000361607
30 *89:88 *250:78 8.29264e-05
31 *101:26 *250:8 0.0011591
32 *109:10 *250:29 9.0029e-05
33 *113:36 *250:52 0.000300326
34 *123:59 *1040:A0 2.02872e-05
35 *130:84 *250:78 6.70361e-05
36 *134:31 *1138:A 3.7314e-05
37 *142:14 *1004:A1 5.3304e-05
38 *144:18 *250:78 0
39 *145:27 *250:68 0.000895608
40 *169:16 *1138:A 3.47728e-05
41 *169:29 *250:52 1.15883e-05
42 *169:35 *250:64 0.00106431
43 *173:20 *250:25 9.45631e-05
44 *173:30 *250:8 0.000188371
45 *187:12 *1040:A0 0.000179725
46 *190:30 *250:8 0.000331974
47 *206:28 *250:78 4.40292e-05
48 *209:18 *250:29 0.000485991
49 *211:34 *250:29 7.43059e-05
50 *227:33 *250:64 0.000188759
51 *227:33 *250:68 7.4244e-06
52 *227:53 *250:64 1.21673e-05
53 *227:53 *250:68 0.000179457
54 *235:10 *250:68 0.000124387
55 *238:70 *1004:A1 5.3304e-05
56 *239:37 *250:25 0.000506341
57 *239:130 *250:78 4.30894e-05
58 *240:10 *250:78 0.000297155
59 *242:24 *250:78 0.00013063
*RES
1 *1175:Q *250:4 23 
2 *250:4 *250:8 35.2171 
3 *250:8 *1040:A0 40.0507 
4 *250:4 *250:25 40.3157 
5 *250:25 *250:29 27.0557 
6 *250:29 *1138:A 39.3775 
7 *250:29 *250:52 40.3263 
8 *250:52 *250:64 30.5121 
9 *250:64 *250:68 44.6836 
10 *250:68 *250:78 42.4286 
11 *250:78 *1004:A1 38.6214 
*END

*D_NET *251 0.0177206
*CONN
*I *1056:A1 I *D sky130_fd_sc_hd__o211ai_1
*I *1097:B2 I *D sky130_fd_sc_hd__a221o_1
*I *1140:A I *D sky130_fd_sc_hd__and2_1
*I *1176:Q O *D sky130_fd_sc_hd__dfxtp_1
*CAP
1 *1056:A1 0
2 *1097:B2 0.000105163
3 *1140:A 3.41786e-05
4 *1176:Q 0.000148272
5 *251:86 0.000713419
6 *251:69 0.00044479
7 *251:61 0.00112807
8 *251:34 0.00156226
9 *251:16 0.00255826
10 *251:14 0.00149333
11 *251:6 0.00211328
12 *251:6 *262:45 6.25147e-05
13 *251:14 *262:45 4.21062e-05
14 *251:61 *261:14 0.000272298
15 *251:61 *261:33 7.10333e-05
16 *251:86 *265:53 7.97968e-05
17 *972:C1 *251:86 1.13859e-05
18 *1032:A1 *251:16 0.000141098
19 *1058:C *251:69 0.000181805
20 *1078:A3 *251:14 7.72375e-05
21 *1097:C1 *1097:B2 5.3304e-05
22 *1146:S *251:86 0
23 *25:18 *251:34 1.64354e-05
24 *32:52 *251:34 0.000201809
25 *43:32 *251:34 0.000398327
26 *64:51 *251:34 0
27 *65:18 *251:86 0.000165669
28 *81:28 *251:61 2.50122e-05
29 *90:84 *251:14 5.13423e-05
30 *91:24 *251:61 3.85652e-06
31 *92:10 *251:61 4.54806e-05
32 *95:91 *251:86 2.46922e-05
33 *97:16 *251:69 0.000108185
34 *98:79 *251:69 9.78729e-06
35 *100:20 *251:34 4.53082e-05
36 *103:43 *251:61 0.000234705
37 *108:18 *251:61 0.000232654
38 *109:85 *1097:B2 5.17777e-06
39 *110:70 *251:86 0.000274412
40 *110:78 *251:86 9.86797e-05
41 *116:39 *251:6 5.8118e-05
42 *119:40 *251:14 9.9437e-05
43 *122:56 *251:69 0.00010602
44 *123:16 *251:16 1.21972e-05
45 *123:16 *251:34 5.06076e-05
46 *123:16 *251:61 8.28923e-05
47 *123:22 *251:34 5.63032e-05
48 *123:72 *251:14 0.00114959
49 *127:53 *251:16 0.000118836
50 *150:83 *251:69 0.000143259
51 *158:14 *251:34 0.000573249
52 *160:18 *251:61 2.55744e-05
53 *161:10 *251:61 3.64467e-05
54 *161:76 *251:16 5.5792e-05
55 *163:34 *1140:A 5.56279e-05
56 *174:67 *251:34 1.09903e-05
57 *174:73 *251:34 0.000475514
58 *177:8 *251:16 5.58003e-05
59 *194:10 *251:86 0
60 *200:28 *251:86 0.000236825
61 *204:12 *251:86 9.85586e-06
62 *208:36 *1097:B2 2.54319e-06
63 *222:30 *251:61 0.000104003
64 *227:71 *251:14 0
65 *228:10 *251:16 0.000257636
66 *230:55 *251:34 1.06173e-05
67 *235:98 *251:34 3.24898e-05
68 *236:39 *251:34 9.10938e-05
69 *236:156 *251:34 0.000431298
70 *238:70 *251:86 1.12858e-05
71 *247:54 *251:86 0.000131579
*RES
1 *1176:Q *251:6 25.0507 
2 *251:6 *251:14 47.2757 
3 *251:14 *251:16 5.38571 
4 *251:16 *251:34 42.3429 
5 *251:34 *1140:A 38.6214 
6 *251:16 *251:61 42.0992 
7 *251:61 *251:69 35.51 
8 *251:69 *1097:B2 39.6002 
9 *251:6 *251:86 43.5264 
10 *251:86 *1056:A1 23 
*END

*D_NET *252 0.0306012
*CONN
*I *972:B2 I *D sky130_fd_sc_hd__o221a_1
*I *1120:A1 I *D sky130_fd_sc_hd__mux2_1
*I *276:DIODE I *D sky130_fd_sc_hd__diode_2
*I *1167:Q O *D sky130_fd_sc_hd__dfxtp_1
*CAP
1 *972:B2 0
2 *1120:A1 0.000318764
3 *276:DIODE 0
4 *1167:Q 0.000267214
5 *252:84 0.00136939
6 *252:56 0.000981167
7 *252:54 0.00148238
8 *252:48 0.00152628
9 *252:40 0.00315734
10 *252:20 0.00803174
11 *252:10 0.00447854
12 *252:40 *255:63 0.00026353
13 *252:40 *269:36 2.58439e-05
14 *252:84 *268:24 8.84148e-05
15 *950:A *252:48 0.000202603
16 *972:A2 *252:84 0.000178517
17 *972:C1 *252:84 5.3304e-05
18 *1064:B *252:48 0.000162386
19 *1120:S *1120:A1 7.15126e-05
20 *1168:CLK *252:40 0.0006776
21 *1183:RESET_B *252:54 8.5041e-05
22 *24:30 *252:54 0.000199874
23 *32:52 *252:40 0
24 *39:10 *252:54 2.33476e-05
25 *43:26 *252:40 4.54748e-05
26 *46:24 *252:48 5.18161e-05
27 *54:12 *252:40 5.4952e-05
28 *55:14 *252:10 0.000128169
29 *58:6 *1120:A1 4.27251e-05
30 *58:6 *252:56 3.81287e-05
31 *64:30 *252:40 0.000765198
32 *64:30 *252:84 0.000714965
33 *78:67 *252:40 2.2396e-05
34 *78:67 *252:84 0.000419182
35 *83:30 *252:40 0.000703652
36 *88:70 *252:84 0.000117021
37 *89:22 *252:40 7.24387e-05
38 *89:22 *252:84 0.000433064
39 *93:16 *252:56 0.000123703
40 *93:22 *252:54 0
41 *103:26 *252:40 0.000116332
42 *104:16 *252:54 0
43 *106:95 *252:48 0.000204693
44 *109:64 *252:84 5.56279e-05
45 *164:16 *252:40 3.63556e-05
46 *191:16 *252:10 8.81675e-05
47 *191:128 *252:48 2.20564e-05
48 *191:142 *252:48 9.5148e-05
49 *197:48 *252:10 7.07867e-05
50 *203:10 *252:48 9.41704e-05
51 *204:28 *252:40 0.00138511
52 *205:40 *252:20 4.96824e-05
53 *220:30 *252:20 4.51815e-05
54 *230:61 *252:40 0.000392105
55 *233:117 *252:48 5.3304e-05
56 *233:117 *252:54 3.18198e-05
57 *233:137 *252:40 0.000387375
58 *234:163 *252:84 3.59414e-05
59 *239:109 *252:84 5.96882e-05
*RES
1 *1167:Q *252:10 42.9611 
2 *252:10 *252:20 30.5016 
3 *252:20 *252:40 45.6212 
4 *252:40 *252:48 42.6357 
5 *252:48 *252:54 43.8786 
6 *252:54 *252:56 8.72071 
7 *252:56 *276:DIODE 23 
8 *252:56 *1120:A1 27.93 
9 *252:20 *252:84 29.9518 
10 *252:84 *972:B2 23 
*END

*D_NET *253 0.00877527
*CONN
*I *985:A1 I *D sky130_fd_sc_hd__o221a_1
*I *1122:A1 I *D sky130_fd_sc_hd__mux2_1
*I *1168:Q O *D sky130_fd_sc_hd__dfxtp_1
*CAP
1 *985:A1 0
2 *1122:A1 0
3 *1168:Q 0.000505841
4 *253:29 0.000212422
5 *253:14 0.00125573
6 *253:8 0.00197399
7 *253:14 *259:34 0
8 *1033:A *253:29 7.38638e-05
9 *1033:B *253:8 0.000285073
10 *1033:B *253:14 0.000187169
11 *1071:B_N *253:8 0.0004219
12 *1071:B_N *253:14 0.000343165
13 *1140:B *253:8 5.85486e-05
14 *24:24 *253:29 0.00022344
15 *59:10 *253:14 5.46873e-05
16 *60:14 *253:14 1.57659e-05
17 *64:51 *253:8 7.05435e-05
18 *66:20 *253:14 0
19 *79:16 *253:14 0
20 *116:82 *253:29 4.77164e-06
21 *116:90 *253:29 3.3042e-05
22 *116:96 *253:14 0.000133845
23 *124:18 *253:14 0.000264546
24 *124:28 *253:14 0.000227759
25 *130:56 *253:14 0.000260998
26 *157:28 *253:14 0.000226896
27 *157:32 *253:14 0.000135037
28 *171:52 *253:14 0.000397181
29 *184:22 *253:14 5.58003e-05
30 *185:8 *253:14 0.000262975
31 *191:34 *253:14 0.000113748
32 *205:22 *253:29 0.000109277
33 *208:81 *253:8 0.000371963
34 *220:6 *253:14 0.000175903
35 *230:55 *253:8 0.000319382
*RES
1 *1168:Q *253:8 49.5896 
2 *253:8 *253:14 41.3589 
3 *253:14 *1122:A1 23 
4 *253:8 *253:29 32.5107 
5 *253:29 *985:A1 23 
*END

*D_NET *254 0.027029
*CONN
*I *1124:A1 I *D sky130_fd_sc_hd__mux2_1
*I *1020:A I *D sky130_fd_sc_hd__nand2_1
*I *1169:Q O *D sky130_fd_sc_hd__dfxtp_1
*CAP
1 *1124:A1 0.00026921
2 *1020:A 0.000533127
3 *1169:Q 0.000185796
4 *254:45 0.00424825
5 *254:20 0.00288531
6 *254:10 0.00651702
7 *1020:A *267:26 0.000393387
8 *254:20 *269:53 0
9 *254:20 *271:68 8.81675e-05
10 *254:45 *266:28 0.000763449
11 *254:45 *267:38 8.44966e-05
12 *1098:B1 *1020:A 0.000145102
13 *28:24 *1124:A1 0.00050042
14 *44:22 *1124:A1 5.09165e-05
15 *67:32 *254:20 0.000661924
16 *67:32 *254:45 0.000426566
17 *72:14 *254:45 0.000107313
18 *77:87 *254:20 0
19 *78:84 *254:20 0
20 *80:36 *254:45 0.000182984
21 *81:28 *254:20 0.000360115
22 *85:57 *254:20 0.00164808
23 *85:57 *254:45 4.51815e-05
24 *87:26 *254:20 0.000828982
25 *93:16 *254:45 0.000104089
26 *98:30 *254:45 3.92627e-05
27 *101:20 *254:45 1.2632e-05
28 *109:22 *1124:A1 4.96832e-05
29 *109:30 *254:45 0.000120999
30 *109:40 *254:45 0.000364702
31 *109:85 *254:20 1.38465e-05
32 *110:14 *254:10 0.00019377
33 *110:14 *254:45 0.000149721
34 *123:80 *1020:A 0.000155089
35 *139:18 *1124:A1 7.74734e-05
36 *163:51 *254:45 0.00173028
37 *200:28 *254:45 2.16394e-05
38 *201:100 *254:45 1.66725e-05
39 *201:110 *254:10 1.58785e-05
40 *201:110 *254:45 1.41472e-05
41 *208:36 *254:20 0.000314974
42 *208:73 *1020:A 9.41704e-05
43 *208:73 *254:20 3.08205e-05
44 *208:81 *254:10 3.55164e-05
45 *215:12 *1124:A1 3.61904e-05
46 *219:20 *254:45 0.00121539
47 *233:51 *1124:A1 8.49085e-05
48 *233:53 *1124:A1 0.000112049
49 *233:59 *1124:A1 5.76251e-05
50 *235:98 *254:20 8.732e-05
51 *236:207 *1020:A 0.000523167
52 *247:71 *254:20 0.000236209
53 *247:71 *254:45 0.000195004
*RES
1 *1169:Q *254:10 41.4075 
2 *254:10 *254:20 44.4566 
3 *254:20 *1020:A 36.0293 
4 *254:10 *254:45 45.4877 
5 *254:45 *1124:A1 46.7725 
*END

*D_NET *255 0.0242265
*CONN
*I *1040:A1 I *D sky130_fd_sc_hd__mux2_1
*I *1126:A1 I *D sky130_fd_sc_hd__mux2_1
*I *1170:Q O *D sky130_fd_sc_hd__dfxtp_1
*CAP
1 *1040:A1 0
2 *1126:A1 0
3 *1170:Q 0.000722548
4 *255:83 0.00101862
5 *255:71 0.00200986
6 *255:63 0.00223845
7 *255:48 0.0011694
8 *255:36 0.00230442
9 *255:28 0.00157483
10 *255:20 0.00190762
11 *255:12 0.000943157
12 *255:28 *259:34 8.97847e-06
13 *255:63 *270:10 0.000580066
14 *255:71 *265:10 2.81406e-06
15 *938:A *255:12 0.0001784
16 *1025:A2 *255:36 0.000187918
17 *1040:A0 *255:83 9.79925e-05
18 *20:16 *255:63 8.16097e-05
19 *29:24 *255:28 0.000813879
20 *57:87 *255:20 0.000232394
21 *57:87 *255:63 1.20966e-05
22 *69:14 *255:71 8.59806e-05
23 *81:132 *255:48 0.000265265
24 *82:40 *255:48 0.000269286
25 *82:100 *255:20 0.000230295
26 *82:100 *255:63 0.000570582
27 *93:22 *255:71 2.93335e-05
28 *93:22 *255:83 0.000208733
29 *96:28 *255:12 0.000340054
30 *96:36 *255:63 0.000700543
31 *102:16 *255:71 8.38427e-05
32 *115:14 *255:36 2.83315e-05
33 *115:28 *255:28 3.24898e-05
34 *116:96 *255:12 0
35 *119:56 *255:71 0.000128137
36 *121:73 *255:48 0.000380235
37 *123:59 *255:83 0.000654629
38 *125:32 *255:36 9.00703e-05
39 *150:22 *255:12 0.000116001
40 *155:133 *255:63 8.75678e-05
41 *157:28 *255:12 2.68607e-05
42 *167:12 *255:63 0.000392489
43 *209:10 *255:12 0.000334896
44 *217:30 *255:20 9.02364e-05
45 *227:14 *255:20 8.73233e-05
46 *227:33 *255:36 0.000977752
47 *233:27 *255:71 9.56375e-06
48 *233:137 *255:63 4.60121e-05
49 *236:12 *255:71 0.000341983
50 *236:33 *255:71 0.00017761
51 *248:23 *255:36 0.000277905
52 *249:33 *255:83 0
53 *250:64 *255:28 0.000813879
54 *252:40 *255:63 0.00026353
*RES
1 *1170:Q *255:12 49.9729 
2 *255:12 *255:20 35.365 
3 *255:20 *255:28 41.455 
4 *255:28 *255:36 47.0271 
5 *255:36 *255:48 31.1779 
6 *255:48 *1126:A1 23 
7 *255:20 *255:63 39.9607 
8 *255:63 *255:71 43.2571 
9 *255:71 *255:83 45.4114 
10 *255:83 *1040:A1 23 
*END

*D_NET *256 0.0153002
*CONN
*I *1097:A1 I *D sky130_fd_sc_hd__a221o_1
*I *1128:A1 I *D sky130_fd_sc_hd__mux2_1
*I *1171:Q O *D sky130_fd_sc_hd__dfxtp_1
*CAP
1 *1097:A1 0.000306257
2 *1128:A1 0
3 *1171:Q 0.00150388
4 *256:34 0.000864662
5 *256:28 0.00153858
6 *256:22 0.00127911
7 *256:18 0.00180281
8 *1097:A1 *257:18 2.83287e-05
9 *256:22 *257:18 7.86724e-05
10 *1029:B1_N *256:28 0.000276557
11 *1031:B *256:18 4.81197e-05
12 *1042:A3 *256:18 9.64943e-05
13 *1049:A *256:18 4.81089e-05
14 *1095:A2 *256:22 0.000216098
15 *1131:A *256:34 5.56356e-05
16 *1192:A *256:34 5.3304e-05
17 *22:18 *256:18 9.58703e-05
18 *57:14 *256:34 0.000297205
19 *78:84 *1097:A1 0.000147101
20 *78:84 *256:22 0.000120161
21 *82:162 *256:34 0
22 *83:94 *256:34 2.33476e-05
23 *83:113 *256:34 0.000406503
24 *88:64 *256:18 0.000567004
25 *95:103 *1097:A1 0.000166174
26 *97:16 *256:28 0.000260677
27 *98:91 *256:28 0.000179473
28 *98:104 *256:18 2.91772e-05
29 *99:47 *256:18 0.000325372
30 *106:53 *256:18 0.000141183
31 *108:49 *256:34 0
32 *109:85 *1097:A1 5.51815e-05
33 *120:88 *256:18 2.46906e-05
34 *120:105 *256:18 1.71761e-05
35 *128:44 *256:18 3.24141e-05
36 *129:8 *256:18 0.000141344
37 *150:83 *256:22 0
38 *155:98 *1097:A1 8.57485e-05
39 *168:6 *256:28 0.00103483
40 *170:8 *256:18 2.64616e-05
41 *185:61 *256:34 0.000395849
42 *188:10 *256:18 0.000102389
43 *196:54 *256:22 0.000193559
44 *197:6 *256:28 0.00113342
45 *208:36 *1097:A1 3.14393e-06
46 *224:12 *256:34 0
47 *240:10 *256:34 0.000612625
48 *242:24 *256:34 0.000485494
*RES
1 *1171:Q *256:18 48.4164 
2 *256:18 *256:22 20.7793 
3 *256:22 *256:28 49.6786 
4 *256:28 *256:34 35.8386 
5 *256:34 *1128:A1 23 
6 *256:22 *1097:A1 43.9036 
*END

*D_NET *257 0.0193556
*CONN
*I *957:A I *D sky130_fd_sc_hd__nand2_1
*I *1107:A0 I *D sky130_fd_sc_hd__mux2_1
*I *1162:Q O *D sky130_fd_sc_hd__dfxtp_1
*CAP
1 *957:A 0.000234835
2 *1107:A0 0.000242382
3 *1162:Q 0.000581464
4 *257:49 0.00129861
5 *257:37 0.00205719
6 *257:18 0.00124914
7 *257:14 0.00229984
8 *257:10 0.000881125
9 *257:14 *262:45 9.66336e-05
10 *257:49 *263:50 1.81712e-05
11 *257:49 *268:30 1.76957e-05
12 *1032:A1 *257:10 2.19845e-05
13 *1078:A2 *257:14 3.24141e-05
14 *1078:A3 *257:14 5.3304e-05
15 *1078:B1 *257:14 0.000488282
16 *1078:B1 *257:37 0.000341374
17 *1095:A2 *257:18 3.7473e-07
18 *1097:A1 *257:18 2.83287e-05
19 *1107:S *1107:A0 7.28117e-05
20 *1117:D_N *257:37 6.56284e-05
21 *41:22 *257:37 4.78662e-05
22 *41:22 *257:49 0.000399568
23 *55:14 *257:49 0
24 *56:14 *257:49 0
25 *59:18 *957:A 0.000105342
26 *60:22 *957:A 0.000458538
27 *77:117 *257:37 0.000387091
28 *78:16 *257:37 2.00313e-05
29 *78:30 *257:49 0.000362397
30 *78:36 *257:49 0.000306898
31 *78:51 *257:37 9.03851e-06
32 *81:72 *257:37 2.79505e-05
33 *84:22 *257:18 0
34 *90:84 *257:10 3.39637e-05
35 *95:139 *957:A 6.21523e-05
36 *100:63 *257:37 4.93791e-05
37 *116:52 *257:14 0.000400563
38 *116:52 *257:37 9.41704e-05
39 *119:40 *257:14 0.000137368
40 *123:16 *257:10 0.000223906
41 *124:67 *257:49 1.34415e-05
42 *125:20 *257:49 4.62843e-05
43 *127:53 *257:10 8.73233e-05
44 *127:53 *257:18 5.78878e-05
45 *130:56 *257:49 5.10636e-05
46 *149:18 *257:49 0.000568311
47 *149:28 *957:A 5.12055e-06
48 *155:98 *257:18 0.000349201
49 *155:111 *257:18 0.000446329
50 *157:12 *257:37 4.51797e-05
51 *161:76 *257:10 1.50312e-05
52 *168:32 *257:10 0.000146614
53 *173:38 *257:10 0.00018249
54 *174:41 *1107:A0 0.000224156
55 *191:54 *257:49 0.000238575
56 *191:79 *257:37 0.0002602
57 *191:79 *257:49 0.000149208
58 *191:177 *257:37 0.000341283
59 *196:54 *257:18 0.000394618
60 *201:72 *257:37 8.96389e-05
61 *206:47 *257:37 0.000366872
62 *236:134 *257:37 6.09613e-06
63 *237:63 *257:37 0.000267029
64 *237:78 *257:18 0.00152362
65 *237:78 *257:37 0.000193559
66 *256:22 *257:18 7.86724e-05
*RES
1 *1162:Q *257:10 46.7 
2 *257:10 *257:14 23.7207 
3 *257:14 *257:18 38.0343 
4 *257:18 *1107:A0 41.48 
5 *257:14 *257:37 43.5336 
6 *257:37 *257:49 37.4643 
7 *257:49 *957:A 44.0279 
*END

*D_NET *258 0.0158126
*CONN
*I *1109:A0 I *D sky130_fd_sc_hd__mux2_1
*I *978:A I *D sky130_fd_sc_hd__or2_2
*I *1163:Q O *D sky130_fd_sc_hd__dfxtp_1
*CAP
1 *1109:A0 0
2 *978:A 0.0010067
3 *1163:Q 0.00131433
4 *258:28 0.00216768
5 *258:24 0.00169568
6 *258:20 0.000954984
7 *258:10 0.00173462
8 *258:10 *270:30 6.0243e-05
9 *258:20 *270:44 5.3304e-05
10 *258:24 *259:34 0.000191582
11 *258:28 *259:34 0.000189098
12 *964:A *258:10 0.0010222
13 *978:B *978:A 0.00069454
14 *1085:A1 *258:10 8.06804e-06
15 *31:14 *258:24 0.000114012
16 *31:14 *258:28 0.000379511
17 *43:12 *258:24 4.5745e-05
18 *49:51 *258:20 0.000276958
19 *49:110 *258:28 0
20 *78:36 *978:A 0.000496863
21 *82:100 *258:10 6.2403e-05
22 *93:43 *258:24 1.05441e-05
23 *99:26 *258:20 9.98916e-05
24 *103:10 *258:10 5.79559e-05
25 *116:78 *258:10 0.000226238
26 *116:102 *978:A 0.00097339
27 *117:49 *258:24 4.76405e-05
28 *145:47 *258:20 0
29 *148:10 *258:24 0.0001746
30 *148:10 *258:28 0.000466316
31 *149:34 *258:28 0
32 *150:10 *258:28 6.60834e-05
33 *162:22 *258:10 0.000263538
34 *169:47 *258:20 0.000101436
35 *171:36 *258:24 9.28078e-06
36 *171:40 *258:20 0.000114896
37 *175:37 *978:A 0.000330095
38 *201:33 *258:10 5.3304e-05
39 *201:33 *258:20 3.33144e-05
40 *216:64 *258:10 1.21972e-05
41 *216:64 *258:20 1.82177e-05
42 *223:50 *258:24 0.000124066
43 *223:50 *258:28 1.05441e-05
44 *227:33 *258:24 0.00015058
*RES
1 *1163:Q *258:10 44.75 
2 *258:10 *258:20 37.8714 
3 *258:20 *258:24 24.6529 
4 *258:24 *258:28 36.2736 
5 *258:28 *978:A 47.6086 
6 *258:24 *1109:A0 38 
*END

*D_NET *259 0.0204696
*CONN
*I *1009:A2 I *D sky130_fd_sc_hd__o21a_1
*I *1111:A0 I *D sky130_fd_sc_hd__mux2_1
*I *1164:Q O *D sky130_fd_sc_hd__dfxtp_1
*CAP
1 *1009:A2 0
2 *1111:A0 0
3 *1164:Q 0.000120224
4 *259:71 0.00177031
5 *259:50 0.00103616
6 *259:34 0.00243733
7 *259:14 0.00379731
8 *259:8 0.000746061
9 *259:8 *260:46 5.56356e-05
10 *259:14 *269:18 0.000110582
11 *259:34 *269:18 0.000484113
12 *259:71 *261:14 0.000369961
13 *259:71 *265:53 2.24267e-05
14 *259:71 *269:18 0.000825359
15 *1071:B_N *259:50 5.3304e-05
16 *1111:A1 *259:50 0.000285662
17 *1111:S *259:50 0.0001784
18 *1164:CLK *259:8 2.69681e-05
19 *21:34 *259:71 4.20725e-05
20 *44:22 *259:14 0.000280926
21 *44:22 *259:34 0.00049276
22 *63:28 *259:71 4.81059e-05
23 *64:66 *259:14 6.38838e-05
24 *77:145 *259:14 0.000487853
25 *95:69 *259:71 1.58513e-05
26 *98:60 *259:50 7.18797e-05
27 *106:111 *259:50 0.000117389
28 *112:57 *259:14 6.29614e-05
29 *115:28 *259:34 0.00111188
30 *117:49 *259:71 4.11613e-05
31 *119:75 *259:71 1.04083e-05
32 *120:39 *259:50 0.000766663
33 *130:56 *259:34 0.00100277
34 *134:10 *259:50 2.193e-05
35 *141:34 *259:71 0.000142571
36 *141:53 *259:71 1.59094e-05
37 *148:10 *259:34 0.00038331
38 *167:8 *259:50 0.00017088
39 *169:35 *259:34 0.000150466
40 *171:52 *259:34 0
41 *177:18 *259:71 7.26878e-05
42 *190:30 *259:14 0.000136649
43 *192:10 *259:71 6.46789e-05
44 *198:16 *259:14 0.00079516
45 *209:45 *259:50 0.000520678
46 *226:30 *259:34 4.40565e-05
47 *232:25 *259:71 0.00026603
48 *236:69 *259:14 8.53388e-05
49 *247:18 *259:71 0.00025057
50 *247:36 *259:71 2.26497e-05
51 *253:14 *259:34 0
52 *255:28 *259:34 8.97847e-06
53 *258:24 *259:34 0.000191582
54 *258:28 *259:34 0.000189098
*RES
1 *1164:Q *259:8 39.5743 
2 *259:8 *259:14 20.2038 
3 *259:14 *259:34 39.0546 
4 *259:34 *259:50 36.8329 
5 *259:50 *1111:A0 23 
6 *259:14 *259:71 49.4824 
7 *259:71 *1009:A2 23 
*END

*D_NET *260 0.0165796
*CONN
*I *1005:B I *D sky130_fd_sc_hd__or3_2
*I *1113:A0 I *D sky130_fd_sc_hd__mux2_1
*I *1165:Q O *D sky130_fd_sc_hd__dfxtp_1
*CAP
1 *1005:B 0
2 *1113:A0 0
3 *1165:Q 0.000203527
4 *260:63 0.000367869
5 *260:46 0.00133015
6 *260:40 0.00207539
7 *260:36 0.000865428
8 *260:26 0.000430069
9 *260:18 0.000774884
10 *260:8 0.00103639
11 *967:A *260:36 9.66585e-05
12 *1164:CLK *260:46 0.000299621
13 *1165:D *260:8 7.38942e-05
14 *17:8 *260:26 0.000389257
15 *17:8 *260:36 2.02217e-05
16 *17:8 *260:40 0.000111106
17 *26:10 *260:40 0.000395428
18 *76:38 *260:26 6.77187e-05
19 *82:8 *260:46 0.000449314
20 *89:88 *260:18 3.76854e-05
21 *105:10 *260:18 0.000296947
22 *105:10 *260:36 3.32202e-05
23 *105:10 *260:63 0.000219678
24 *106:10 *260:36 9.07011e-05
25 *106:10 *260:40 0.000466558
26 *112:8 *260:63 5.31236e-05
27 *113:84 *260:26 0.000118023
28 *118:63 *260:26 0.000137651
29 *127:27 *260:46 0.00151262
30 *130:84 *260:26 0.000137361
31 *135:6 *260:36 0.000135037
32 *144:18 *260:18 0.000223115
33 *144:18 *260:26 0.000114906
34 *144:18 *260:63 0.000220781
35 *180:39 *260:40 0
36 *182:24 *260:40 0.00015547
37 *189:14 *260:40 1.79572e-05
38 *190:30 *260:46 2.4387e-05
39 *195:12 *260:18 0.000299187
40 *195:12 *260:63 0.000210455
41 *197:48 *260:46 5.31466e-05
42 *198:16 *260:46 8.20653e-05
43 *206:18 *260:40 0.0014011
44 *216:14 *260:46 0.000409468
45 *234:50 *260:46 0.000874852
46 *236:119 *260:46 4.73234e-05
47 *238:70 *260:18 0.000135037
48 *240:10 *260:18 0
49 *250:78 *260:18 2.91395e-05
50 *259:8 *260:46 5.56356e-05
*RES
1 *1165:Q *260:8 40.5271 
2 *260:8 *260:18 39.7357 
3 *260:18 *260:26 37.3536 
4 *260:26 *260:36 33.3971 
5 *260:36 *260:40 36.2736 
6 *260:40 *260:46 48.7229 
7 *260:46 *1113:A0 38 
8 *260:8 *260:63 37.975 
9 *260:63 *1005:B 38 
*END

*D_NET *261 0.0151026
*CONN
*I *1055:A2 I *D sky130_fd_sc_hd__o31a_1
*I *1115:A0 I *D sky130_fd_sc_hd__mux2_1
*I *1166:Q O *D sky130_fd_sc_hd__dfxtp_1
*CAP
1 *1055:A2 0.000720708
2 *1115:A0 0
3 *1166:Q 0
4 *261:33 0.00171433
5 *261:24 0.000778383
6 *261:14 0.00288786
7 *261:6 0.00111586
8 *261:33 *267:32 0.000420393
9 *959:B1 *261:33 6.27542e-05
10 *1032:A1 *261:14 0.000188426
11 *1055:A1 *1055:A2 4.95081e-05
12 *1055:A3 *1055:A2 5.67058e-05
13 *1055:B1 *1055:A2 0.00153683
14 *49:76 *261:24 0.00025015
15 *81:28 *261:24 0.000612807
16 *92:10 *261:14 2.51323e-05
17 *92:10 *261:33 0.000184176
18 *97:37 *261:33 0.000166936
19 *103:43 *261:14 2.12347e-06
20 *108:18 *261:14 1.92883e-05
21 *108:18 *261:33 2.82419e-06
22 *116:128 *261:24 1.05441e-05
23 *119:46 *261:14 0.00011508
24 *123:16 *261:14 0.000279889
25 *141:66 *261:33 4.3301e-05
26 *146:24 *261:33 0
27 *160:18 *261:14 2.26406e-05
28 *160:18 *261:24 0.000612807
29 *167:32 *261:33 0.000118471
30 *168:49 *261:33 0.00050031
31 *170:31 *261:14 0.000161527
32 *177:18 *261:14 0.000934019
33 *192:10 *261:14 4.94766e-06
34 *194:8 *1055:A2 9.22512e-05
35 *201:134 *261:33 7.89883e-05
36 *230:96 *261:24 0.000619331
37 *251:61 *261:14 0.000272298
38 *251:61 *261:33 7.10333e-05
39 *259:71 *261:14 0.000369961
*RES
1 *1166:Q *261:6 38 
2 *261:6 *261:14 22.8375 
3 *261:14 *261:24 41.3828 
4 *261:24 *1115:A0 23 
5 *261:14 *261:33 33.6325 
6 *261:33 *1055:A2 41.7257 
*END

*D_NET *262 0.014897
*CONN
*I *973:A1 I *D sky130_fd_sc_hd__a21o_1
*I *1085:A0 I *D sky130_fd_sc_hd__mux2_1
*I *1157:Q O *D sky130_fd_sc_hd__dfxtp_1
*CAP
1 *973:A1 0
2 *1085:A0 0
3 *1157:Q 5.21115e-05
4 *262:45 0.0021753
5 *262:26 0.000617696
6 *262:12 0.00358985
7 *262:8 0.00084896
8 *1078:A2 *262:45 0.000578774
9 *1078:A3 *262:45 5.56356e-05
10 *1078:B1 *262:45 0.000612119
11 *1176:D *262:45 1.64354e-05
12 *99:26 *262:26 0.000273641
13 *99:43 *262:26 0.000477062
14 *116:39 *262:45 0.000556492
15 *116:52 *262:45 0.00019064
16 *123:6 *262:45 0.000179473
17 *123:22 *262:8 8.24122e-05
18 *123:42 *262:8 9.28078e-06
19 *123:72 *262:45 0.00156887
20 *126:10 *262:26 1.23172e-05
21 *126:14 *262:26 0.000148271
22 *129:26 *262:26 0.000941844
23 *202:27 *262:8 8.23646e-05
24 *237:31 *262:12 0.000989594
25 *237:31 *262:45 0.000636645
26 *251:6 *262:45 6.25147e-05
27 *251:14 *262:45 4.21062e-05
28 *257:14 *262:45 9.66336e-05
*RES
1 *1157:Q *262:8 39.2014 
2 *262:8 *262:12 26.1029 
3 *262:12 *262:26 45.0593 
4 *262:26 *1085:A0 23 
5 *262:12 *262:45 42.3193 
6 *262:45 *973:A1 23 
*END

*D_NET *263 0.0234991
*CONN
*I *1087:A0 I *D sky130_fd_sc_hd__mux2_1
*I *986:A1 I *D sky130_fd_sc_hd__a21o_1
*I *999:A1 I *D sky130_fd_sc_hd__a21oi_1
*I *1158:Q O *D sky130_fd_sc_hd__dfxtp_1
*CAP
1 *1087:A0 0
2 *986:A1 0.000939406
3 *999:A1 0.00011791
4 *1158:Q 0.00111337
5 *263:84 0.000401092
6 *263:50 0.00110035
7 *263:46 0.00107303
8 *263:32 0.00365629
9 *263:18 0.00414076
10 *263:32 *268:24 0.00012168
11 *263:46 *268:24 4.96824e-05
12 *263:46 *268:30 0.00110931
13 *263:84 *264:31 0
14 *263:84 *266:51 9.86551e-06
15 *999:B1 *999:A1 4.19167e-05
16 *1070:B1 *263:18 5.40337e-05
17 *1143:A *986:A1 7.22308e-05
18 *39:24 *263:32 2.81221e-05
19 *41:22 *263:46 0.00115489
20 *50:10 *263:32 0.000725527
21 *56:14 *263:50 4.15283e-06
22 *64:30 *263:46 8.61904e-05
23 *76:32 *263:32 0.00101477
24 *81:72 *263:32 0.0001638
25 *85:63 *263:18 4.05745e-05
26 *85:63 *263:84 8.40718e-05
27 *98:91 *263:18 0.000142678
28 *101:20 *263:46 9.19646e-05
29 *104:10 *263:18 0.000179473
30 *108:49 *263:32 0.000423481
31 *109:64 *263:32 0.000735971
32 *113:16 *263:46 0.000195808
33 *121:10 *263:18 0.000224411
34 *122:62 *263:84 0.000387998
35 *124:38 *999:A1 2.24644e-05
36 *124:67 *986:A1 0.000156352
37 *124:67 *999:A1 1.03836e-05
38 *124:67 *263:50 3.18198e-05
39 *125:20 *986:A1 0.000684882
40 *137:24 *999:A1 3.7681e-05
41 *138:18 *999:A1 7.09642e-05
42 *167:32 *263:18 0.000516801
43 *167:38 *263:18 0.00102247
44 *167:38 *263:84 0.000175903
45 *174:29 *263:32 0.000729871
46 *179:32 *263:46 2.17681e-05
47 *193:8 *263:84 6.82235e-05
48 *198:28 *263:46 1.66113e-05
49 *201:80 *263:18 8.48502e-06
50 *201:90 *263:18 0.000114166
51 *208:8 *263:18 2.91241e-05
52 *218:10 *263:84 5.47697e-05
53 *226:10 *263:84 2.33476e-05
54 *257:49 *263:50 1.81712e-05
*RES
1 *1158:Q *263:18 46.7386 
2 *263:18 *263:32 46.4133 
3 *263:32 *263:46 49.6321 
4 *263:46 *263:50 15.6732 
5 *263:50 *999:A1 26.5629 
6 *263:50 *986:A1 36.6507 
7 *263:18 *263:84 39.2386 
8 *263:84 *1087:A0 23 
*END

*D_NET *264 0.0109323
*CONN
*I *1089:A0 I *D sky130_fd_sc_hd__mux2_1
*I *1022:A1_N I *D sky130_fd_sc_hd__a2bb2o_2
*I *1159:Q O *D sky130_fd_sc_hd__dfxtp_1
*CAP
1 *1089:A0 0.000106145
2 *1022:A1_N 1.70951e-05
3 *1159:Q 0.000156346
4 *264:31 0.00264592
5 *264:10 0.00271322
6 *264:31 *266:51 7.62058e-06
7 *264:31 *271:68 4.24694e-06
8 *1089:A1 *1089:A0 7.87243e-05
9 *46:20 *264:31 0
10 *97:37 *264:31 1.94859e-05
11 *110:53 *1022:A1_N 3.28708e-05
12 *145:75 *264:10 0.000147441
13 *145:75 *264:31 0.000194619
14 *145:94 *264:31 0.000430649
15 *146:24 *264:31 5.96247e-05
16 *161:24 *264:10 5.56356e-05
17 *168:49 *264:31 7.92903e-05
18 *170:31 *1022:A1_N 1.6318e-05
19 *174:57 *264:31 7.76789e-05
20 *174:67 *264:10 0.000147441
21 *174:67 *264:31 0.000725614
22 *185:61 *264:31 0.00258127
23 *211:10 *264:31 0.000120377
24 *219:8 *264:31 1.13812e-05
25 *226:30 *264:31 0.000503245
26 *263:84 *264:31 0
*RES
1 *1159:Q *264:10 40.8793 
2 *264:10 *1022:A1_N 38.3832 
3 *264:10 *264:31 37.88 
4 *264:31 *1089:A0 39.5743 
*END

*D_NET *265 0.0255206
*CONN
*I *1041:A0 I *D sky130_fd_sc_hd__mux2_1
*I *1091:A0 I *D sky130_fd_sc_hd__mux2_1
*I *1160:Q O *D sky130_fd_sc_hd__dfxtp_1
*CAP
1 *1041:A0 0
2 *1091:A0 1.94238e-05
3 *1160:Q 0.000331477
4 *265:53 0.00464485
5 *265:22 0.00148989
6 *265:16 0.00628121
7 *265:10 0.000497373
8 *1183:RESET_B *265:10 0
9 *3:21 *265:53 0.000286398
10 *19:14 *265:22 0.00187191
11 *42:10 *265:22 0.00195206
12 *63:28 *265:22 4.51815e-05
13 *63:28 *265:53 0.00301287
14 *64:30 *265:53 4.18768e-05
15 *71:12 *265:53 7.89973e-05
16 *71:14 *265:53 1.26108e-05
17 *90:60 *265:53 0.000157538
18 *93:22 *265:10 3.7122e-06
19 *94:28 *265:10 0
20 *94:28 *265:16 2.61314e-05
21 *94:28 *265:53 2.33855e-05
22 *95:12 *265:10 9.33529e-06
23 *95:12 *265:53 2.83734e-05
24 *112:41 *265:53 7.89883e-05
25 *115:40 *265:16 1.74575e-06
26 *117:26 *265:22 0.00021701
27 *119:56 *265:10 5.0005e-05
28 *120:12 *265:10 2.48259e-05
29 *126:56 *265:53 0.000188077
30 *136:24 *265:53 0.000247953
31 *138:57 *265:10 9.4798e-06
32 *162:14 *265:10 7.57281e-06
33 *178:14 *265:53 3.97621e-05
34 *179:32 *265:53 0.00240676
35 *191:34 *1091:A0 5.56356e-05
36 *200:28 *265:53 0.000207227
37 *210:14 *265:53 0.000357325
38 *212:30 *265:53 9.10986e-05
39 *218:22 *265:53 5.5792e-05
40 *219:20 *265:22 0
41 *221:43 *265:22 0.000141169
42 *233:41 *265:16 6.57932e-06
43 *233:41 *265:53 4.96772e-05
44 *234:16 *265:53 8.54148e-05
45 *238:22 *1091:A0 5.3304e-05
46 *238:39 *265:22 0
47 *238:70 *265:53 0.000204785
48 *239:37 *265:22 2.07509e-05
49 *249:33 *265:10 0
50 *251:86 *265:53 7.97968e-05
51 *255:71 *265:10 2.81406e-06
52 *259:71 *265:53 2.24267e-05
*RES
1 *1160:Q *265:10 43.1889 
2 *265:10 *265:16 8.4088 
3 *265:16 *265:22 35.672 
4 *265:22 *1091:A0 38.6214 
5 *265:16 *265:53 39.5455 
6 *265:53 *1041:A0 23 
*END

*D_NET *266 0.0257544
*CONN
*I *1098:A1 I *D sky130_fd_sc_hd__o21ai_2
*I *1103:A0 I *D sky130_fd_sc_hd__mux2_1
*I *1161:Q O *D sky130_fd_sc_hd__dfxtp_1
*CAP
1 *1098:A1 0
2 *1103:A0 4.82771e-05
3 *1161:Q 7.63951e-05
4 *266:51 0.00479693
5 *266:28 0.00231232
6 *266:10 0.00713736
7 *266:51 *271:43 0.000135792
8 *266:51 *271:68 0.000932185
9 *1103:A1 *1103:A0 2.64616e-05
10 *46:20 *266:51 0.000180464
11 *72:14 *266:28 0.000979582
12 *72:14 *266:51 7.69066e-05
13 *83:20 *266:51 7.44705e-05
14 *101:20 *266:28 4.51815e-05
15 *109:30 *266:28 0.000408862
16 *117:26 *266:28 0.000617242
17 *122:39 *266:51 0.000190284
18 *140:10 *1103:A0 2.33476e-05
19 *140:10 *266:28 0.000102381
20 *153:12 *266:51 0.000247293
21 *154:18 *266:51 2.37336e-05
22 *179:14 *266:28 0.000208334
23 *190:12 *266:51 2.55744e-05
24 *193:8 *266:51 2.33476e-05
25 *200:14 *266:51 2.79705e-05
26 *200:28 *266:51 0.00104429
27 *201:110 *266:10 5.40337e-05
28 *211:18 *266:51 0.000353473
29 *215:12 *1103:A0 2.11157e-05
30 *219:20 *266:28 0.000156821
31 *221:43 *266:28 0.000210087
32 *226:30 *266:51 0.00432518
33 *239:159 *266:28 8.77208e-05
34 *239:159 *266:51 0
35 *254:45 *266:28 0.000763449
36 *263:84 *266:51 9.86551e-06
37 *264:31 *266:51 7.62058e-06
*RES
1 *1161:Q *266:10 39.595 
2 *266:10 *266:28 44.1123 
3 *266:28 *1103:A0 46.9425 
4 *266:10 *266:51 37.2481 
5 *266:51 *1098:A1 38 
*END

*D_NET *267 0.017628
*CONN
*I *952:B_N I *D sky130_fd_sc_hd__and4bb_1
*I *1144:A0 I *D sky130_fd_sc_hd__mux2_1
*I *1177:Q O *D sky130_fd_sc_hd__dfxtp_1
*CAP
1 *952:B_N 0
2 *1144:A0 0
3 *1177:Q 8.81957e-05
4 *267:38 0.0017863
5 *267:32 0.00203207
6 *267:26 0.00123135
7 *267:14 0.00280057
8 *267:8 0.00190319
9 *952:D *267:26 5.3304e-05
10 *1020:A *267:26 0.000393387
11 *1041:S *267:14 8.68016e-05
12 *1098:B1 *267:26 0.000183547
13 *77:55 *267:38 0.000845121
14 *78:16 *267:8 9.41704e-05
15 *80:36 *267:14 0.000141472
16 *81:12 *267:14 2.33476e-05
17 *84:22 *267:14 0.000167729
18 *84:38 *267:14 0.00110667
19 *91:8 *267:26 0.000181801
20 *93:37 *267:38 0.000169999
21 *95:103 *267:14 9.44092e-05
22 *97:22 *267:38 4.40294e-05
23 *122:8 *267:38 1.05235e-05
24 *122:56 *267:38 5.119e-05
25 *127:37 *267:14 0
26 *141:66 *267:32 0.000420393
27 *155:94 *267:14 0.000214162
28 *159:18 *267:14 4.45541e-06
29 *179:32 *267:14 6.71781e-05
30 *194:10 *267:14 0.00155534
31 *201:100 *267:38 7.1016e-05
32 *201:110 *267:38 1.13812e-05
33 *207:38 *267:38 6.17437e-06
34 *208:73 *267:26 0.000304975
35 *235:31 *267:14 0.000130861
36 *235:54 *267:14 4.66905e-05
37 *235:60 *267:14 0.000706972
38 *235:82 *267:38 9.43689e-05
39 *254:45 *267:38 8.44966e-05
40 *261:33 *267:32 0.000420393
*RES
1 *1177:Q *267:8 39.0979 
2 *267:8 *267:14 39.295 
3 *267:14 *267:26 31.5507 
4 *267:26 *267:32 36.1314 
5 *267:32 *267:38 37.7857 
6 *267:38 *1144:A0 38 
7 *267:26 *952:B_N 23 
*END

*D_NET *268 0.0102557
*CONN
*I *1146:A0 I *D sky130_fd_sc_hd__mux2_1
*I *975:C I *D sky130_fd_sc_hd__and4b_1
*I *1178:Q O *D sky130_fd_sc_hd__dfxtp_1
*CAP
1 *1146:A0 0
2 *975:C 0
3 *1178:Q 0
4 *268:41 0.000641148
5 *268:30 0.00114103
6 *268:24 0.00155036
7 *268:6 0.00105047
8 *1069:A *268:41 0.00030481
9 *1117:A *268:30 7.45306e-06
10 *1117:C *268:30 0.000131383
11 *41:22 *268:24 0.000112806
12 *41:22 *268:30 6.7159e-05
13 *41:22 *268:41 7.89883e-05
14 *55:14 *268:30 0.000957449
15 *64:30 *268:24 8.78604e-05
16 *77:131 *268:30 0.000159763
17 *77:145 *268:30 7.00301e-05
18 *81:72 *268:24 0.000170177
19 *83:94 *268:41 0.000106971
20 *84:46 *268:30 2.47211e-05
21 *112:18 *268:41 0.000766377
22 *114:10 *268:30 9.87372e-05
23 *174:6 *268:41 0.000384456
24 *179:32 *268:24 4.96824e-05
25 *198:28 *268:24 0.000115342
26 *198:28 *268:30 0.000257274
27 *198:28 *268:41 0.00021401
28 *206:57 *268:41 0.00022034
29 *223:42 *268:30 8.03944e-05
30 *237:51 *268:41 1.21972e-05
31 *237:63 *268:41 7.48945e-06
32 *252:84 *268:24 8.84148e-05
33 *257:49 *268:30 1.76957e-05
34 *263:32 *268:24 0.00012168
35 *263:46 *268:24 4.96824e-05
36 *263:46 *268:30 0.00110931
*RES
1 *1178:Q *268:6 38 
2 *268:6 *268:24 34.6779 
3 *268:24 *268:30 38.9768 
4 *268:30 *975:C 23 
5 *268:6 *268:41 30.8464 
6 *268:41 *1146:A0 23 
*END

*D_NET *269 0.0243762
*CONN
*I *1148:A0 I *D sky130_fd_sc_hd__mux2_1
*I *1007:C I *D sky130_fd_sc_hd__and4b_1
*I *1179:Q O *D sky130_fd_sc_hd__dfxtp_1
*CAP
1 *1148:A0 0
2 *1007:C 0
3 *1179:Q 0
4 *269:53 0.00269348
5 *269:36 4.46633e-05
6 *269:26 0.00353578
7 *269:18 0.00267591
8 *269:6 0.00433976
9 *269:4 0.00246149
10 *269:53 *271:68 0
11 *27:20 *269:6 0.00114123
12 *44:22 *269:18 8.77946e-05
13 *49:45 *269:18 0.000228871
14 *64:30 *269:36 4.74508e-05
15 *64:66 *269:18 0.000300309
16 *77:87 *269:53 0.000106452
17 *83:10 *269:53 0.000272355
18 *83:20 *269:53 6.82841e-05
19 *83:30 *269:36 2.47015e-05
20 *83:61 *269:36 2.26497e-05
21 *84:67 *269:26 0.000272607
22 *85:57 *269:53 4.93791e-05
23 *91:24 *269:53 0.000147073
24 *95:69 *269:18 0.000307165
25 *95:69 *269:26 0.000450384
26 *97:16 *269:53 3.89965e-05
27 *101:20 *269:18 0.000210325
28 *120:47 *269:18 0.000930731
29 *141:18 *269:53 2.83725e-05
30 *141:34 *269:18 0.000103474
31 *147:28 *269:18 3.62864e-05
32 *148:10 *269:18 4.71841e-05
33 *155:34 *269:18 0.000143615
34 *157:12 *269:26 0.000276427
35 *166:10 *269:18 9.28078e-06
36 *168:20 *269:53 4.74508e-05
37 *168:32 *269:53 0.000801041
38 *178:18 *269:26 5.40645e-05
39 *178:18 *269:53 0.000126459
40 *178:38 *269:53 4.24018e-05
41 *182:24 *269:6 0.000104089
42 *204:28 *269:53 0.000118405
43 *205:49 *269:6 0.000533886
44 *208:36 *269:53 0
45 *252:40 *269:36 2.58439e-05
46 *254:20 *269:53 0
47 *259:14 *269:18 0.000110582
48 *259:34 *269:18 0.000484113
49 *259:71 *269:18 0.000825359
*RES
1 *1179:Q *269:4 23 
2 *269:4 *269:6 35.8771 
3 *269:6 *269:18 48.8682 
4 *269:18 *269:26 18.0235 
5 *269:26 *269:36 31.42 
6 *269:36 *1007:C 23 
7 *269:26 *269:53 44.9188 
8 *269:53 *1148:A0 23 
*END

*D_NET *270 0.0178406
*CONN
*I *1150:A0 I *D sky130_fd_sc_hd__mux2_1
*I *1003:C I *D sky130_fd_sc_hd__and4b_1
*I *1180:Q O *D sky130_fd_sc_hd__dfxtp_1
*CAP
1 *1150:A0 0
2 *1003:C 0.00126129
3 *1180:Q 0.000132612
4 *270:44 0.00163596
5 *270:30 0.00112028
6 *270:18 0.00166522
7 *270:10 0.00244493
8 *270:8 0.00165794
9 *987:A1 *270:18 0.000779594
10 *987:A2 *270:18 9.64943e-05
11 *1018:A *1003:C 0.000476238
12 *1085:A1 *270:30 0.000138607
13 *1180:D *270:8 5.3304e-05
14 *32:36 *270:18 0.000177091
15 *43:32 *270:10 0.00157059
16 *93:43 *270:44 5.62266e-05
17 *96:36 *270:10 0.000171889
18 *97:45 *270:10 8.36198e-05
19 *98:42 *270:10 9.10938e-05
20 *103:10 *270:18 7.99224e-05
21 *121:87 *270:18 8.02575e-06
22 *145:47 *1003:C 4.96675e-06
23 *145:47 *270:44 0.000113518
24 *145:57 *270:44 9.41704e-05
25 *148:10 *270:44 0.000131416
26 *156:18 *1003:C 0.000102025
27 *167:12 *270:10 0.000252967
28 *169:47 *270:44 0.000263534
29 *171:36 *270:44 0.000125347
30 *185:47 *270:10 0.00175093
31 *201:16 *270:30 0.000207902
32 *201:33 *270:30 0
33 *218:22 *1003:C 0.000358732
34 *247:88 *270:8 1.24362e-05
35 *248:23 *270:44 2.80822e-05
36 *255:63 *270:10 0.000580066
37 *258:10 *270:30 6.0243e-05
38 *258:20 *270:44 5.3304e-05
*RES
1 *1180:Q *270:8 39.5743 
2 *270:8 *270:10 36.7679 
3 *270:10 *270:18 43.1121 
4 *270:18 *270:30 25.005 
5 *270:30 *270:44 38.4307 
6 *270:44 *1003:C 39.3436 
7 *270:30 *1150:A0 23 
*END

*D_NET *271 0.0266855
*CONN
*I *1054:A I *D sky130_fd_sc_hd__or2_1
*I *1152:A0 I *D sky130_fd_sc_hd__mux2_1
*I *1014:A I *D sky130_fd_sc_hd__nor2_1
*I *1181:Q O *D sky130_fd_sc_hd__dfxtp_1
*CAP
1 *1054:A 0
2 *1152:A0 0
3 *1014:A 3.78685e-05
4 *1181:Q 4.97688e-05
5 *271:74 0.000619672
6 *271:68 0.00157972
7 *271:49 0.000411124
8 *271:43 0.00277172
9 *271:24 0.00202095
10 *271:20 0.00161226
11 *271:8 0.00107948
12 *968:A *271:43 6.63159e-06
13 *968:B *271:43 2.81066e-05
14 *1107:S *271:74 3.91223e-05
15 *30:12 *271:74 4.32719e-05
16 *49:76 *271:49 0.000530051
17 *50:6 *271:74 0.00125386
18 *58:22 *271:43 0.000190268
19 *71:69 *271:49 0.000207886
20 *83:20 *271:68 0.000615097
21 *101:26 *271:20 0.00013077
22 *106:65 *271:43 0.000374535
23 *106:80 *271:43 1.12796e-05
24 *107:6 *271:43 0.000461816
25 *116:8 *271:74 0.000658483
26 *122:29 *271:68 9.05529e-05
27 *122:39 *271:43 0.00159948
28 *153:6 *271:43 0.000182353
29 *153:43 *271:43 0.000585355
30 *163:51 *271:24 0.000210856
31 *173:30 *271:20 2.37886e-05
32 *173:30 *271:24 8.02636e-05
33 *174:41 *271:74 0.000123147
34 *174:45 *271:74 5.40337e-05
35 *174:67 *271:68 2.41841e-05
36 *190:30 *271:20 0.000342859
37 *200:28 *271:68 0.000158963
38 *201:90 *271:68 0
39 *201:100 *271:43 0.00131588
40 *201:100 *271:68 0.000224411
41 *201:145 *271:68 2.41718e-05
42 *208:73 *271:43 0.000423085
43 *208:73 *271:68 6.85548e-05
44 *211:18 *271:24 0.000511436
45 *211:34 *271:8 1.23293e-05
46 *216:37 *271:20 0.000141613
47 *229:16 *271:20 0
48 *236:194 *271:43 0.000484894
49 *236:194 *271:68 0.000211973
50 *237:78 *271:74 4.67488e-05
51 *238:12 *271:20 0.000528535
52 *238:12 *271:24 0.00136444
53 *238:22 *271:20 0.000430738
54 *250:8 *271:20 0.00152668
55 *254:20 *271:68 8.81675e-05
56 *264:31 *271:68 4.24694e-06
57 *266:51 *271:43 0.000135792
58 *266:51 *271:68 0.000932185
59 *269:53 *271:68 0
*RES
1 *1181:Q *271:8 38.6214 
2 *271:8 *271:20 44.2959 
3 *271:20 *271:24 35.7454 
4 *271:24 *1014:A 23.6214 
5 *271:24 *271:43 46.9386 
6 *271:43 *271:49 37.8921 
7 *271:49 *1152:A0 23 
8 *271:43 *271:68 40.3401 
9 *271:68 *271:74 32.6693 
10 *271:74 *1054:A 23 
*END
