*SPEF "ieee 1481-1999"
*DESIGN "top_module"
*DATE "12:30:51 Sunday May 25, 2025"
*VENDOR "The OpenROAD Project"
*PROGRAM "OpenROAD"
*VERSION "b16bda7e82721d10566ff7e2b68f1ff0be9f9e38"
*DESIGN_FLOW "NAME_SCOPE LOCAL" "PIN_CAP NONE"
*DIVIDER /
*DELIMITER :
*BUS_DELIMITER []
*T_UNIT 1 NS
*C_UNIT 1 PF
*R_UNIT 1 OHM
*L_UNIT 1 HENRY

*NAME_MAP
*1 BTNR
*2 BTNU
*3 CLK100MHZ
*6 net10
*7 net11
*8 net12
*9 net13
*10 seg[0]
*11 seg[1]
*12 seg[2]
*13 seg[3]
*14 seg[4]
*15 seg[5]
*16 seg[6]
*17 _000_
*18 _001_
*19 _002_
*20 _003_
*21 _004_
*22 _005_
*23 _006_
*24 _007_
*25 _008_
*26 _009_
*27 _010_
*28 _011_
*29 _012_
*30 _013_
*31 _014_
*32 _015_
*33 _016_
*34 _017_
*35 _018_
*36 _019_
*37 _020_
*38 _021_
*39 _022_
*40 _023_
*41 _024_
*42 _025_
*43 _026_
*44 _027_
*45 _028_
*46 _029_
*47 _030_
*48 _031_
*49 _032_
*50 _033_
*51 _034_
*52 _035_
*53 _036_
*54 _037_
*55 _038_
*56 _039_
*57 _040_
*58 _041_
*59 _042_
*60 _043_
*61 _044_
*62 _045_
*63 _046_
*64 _047_
*65 _048_
*66 _049_
*67 _050_
*68 _051_
*69 _052_
*70 _053_
*71 _054_
*72 _055_
*73 _056_
*74 _057_
*75 _058_
*76 _059_
*77 _060_
*78 _061_
*79 _062_
*80 _063_
*81 _064_
*82 _065_
*83 _066_
*84 _067_
*85 _068_
*86 _069_
*87 _070_
*88 _071_
*89 _072_
*90 _073_
*91 _074_
*92 _075_
*93 _076_
*94 _077_
*95 _078_
*96 _079_
*97 _080_
*98 _081_
*99 _082_
*100 _083_
*101 _084_
*102 _085_
*103 _086_
*104 _087_
*105 _088_
*106 _089_
*107 _090_
*108 _091_
*109 _092_
*110 _093_
*111 _094_
*112 _095_
*113 _096_
*114 _097_
*115 _098_
*116 _099_
*117 _100_
*118 _101_
*119 _102_
*120 _103_
*121 _104_
*122 _105_
*123 _106_
*124 _107_
*125 _108_
*126 _109_
*127 _110_
*128 _111_
*129 _112_
*130 _113_
*131 _114_
*132 _115_
*133 _116_
*134 _117_
*135 _118_
*136 _119_
*137 _120_
*138 _121_
*139 _122_
*140 _123_
*141 _124_
*142 _125_
*143 _126_
*144 _127_
*145 _128_
*146 _129_
*147 _130_
*148 _131_
*149 _132_
*150 _133_
*151 _134_
*152 _135_
*153 _136_
*154 _137_
*155 _138_
*156 _139_
*157 _140_
*158 _141_
*159 _142_
*160 _143_
*161 _144_
*162 _145_
*163 _146_
*164 _147_
*165 _148_
*166 _149_
*167 _150_
*168 _151_
*169 _152_
*170 _153_
*171 _154_
*172 _155_
*173 _156_
*174 _157_
*175 _158_
*176 _159_
*177 _160_
*178 _161_
*179 _162_
*180 _163_
*181 _164_
*182 _165_
*183 _166_
*184 _167_
*185 _168_
*186 _169_
*187 _170_
*188 _171_
*189 _172_
*190 _173_
*191 _174_
*192 _175_
*193 _176_
*194 _177_
*195 _178_
*196 _179_
*197 _180_
*198 _181_
*199 _182_
*200 _183_
*201 _184_
*202 _185_
*203 _186_
*204 _187_
*205 _188_
*206 _189_
*207 _190_
*208 _191_
*209 _192_
*210 _193_
*211 _194_
*212 _195_
*213 _196_
*214 _197_
*215 _198_
*216 _199_
*217 _200_
*218 _201_
*219 _202_
*220 _203_
*221 _204_
*222 _205_
*223 _206_
*224 _207_
*225 _208_
*226 _209_
*227 _210_
*228 _211_
*229 _212_
*230 _213_
*231 _214_
*232 clknet_0_CLK100MHZ
*233 clknet_1_0__leaf_CLK100MHZ
*234 clknet_1_1__leaf_CLK100MHZ
*235 imem\.address\[0\]
*236 imem\.address\[1\]
*237 imem\.address\[2\]
*238 net1
*239 net2
*240 net3
*241 net4
*242 net5
*243 net6
*244 net7
*245 net8
*246 net9
*247 rf\.regs\[0\]\[0\]
*248 rf\.regs\[0\]\[1\]
*249 rf\.regs\[0\]\[2\]
*250 rf\.regs\[0\]\[3\]
*251 rf\.regs\[0\]\[4\]
*252 rf\.regs\[10\]\[0\]
*253 rf\.regs\[10\]\[1\]
*254 rf\.regs\[10\]\[2\]
*255 rf\.regs\[10\]\[3\]
*256 rf\.regs\[10\]\[4\]
*257 rf\.regs\[15\]\[0\]
*258 rf\.regs\[15\]\[1\]
*259 rf\.regs\[15\]\[2\]
*260 rf\.regs\[15\]\[3\]
*261 rf\.regs\[15\]\[4\]
*262 rf\.regs\[25\]\[0\]
*263 rf\.regs\[25\]\[1\]
*264 rf\.regs\[25\]\[2\]
*265 rf\.regs\[25\]\[3\]
*266 rf\.regs\[25\]\[4\]
*267 rf\.regs\[5\]\[0\]
*268 rf\.regs\[5\]\[1\]
*269 rf\.regs\[5\]\[2\]
*270 rf\.regs\[5\]\[3\]
*271 rf\.regs\[5\]\[4\]
*272 ANTENNA_1
*273 ANTENNA_2
*274 ANTENNA_3
*275 ANTENNA_4
*276 ANTENNA_5
*277 ANTENNA_6
*278 FILLER_0_0_109
*279 FILLER_0_0_113
*280 FILLER_0_0_119
*281 FILLER_0_0_123
*282 FILLER_0_0_135
*283 FILLER_0_0_139
*284 FILLER_0_0_141
*285 FILLER_0_0_15
*286 FILLER_0_0_152
*287 FILLER_0_0_164
*288 FILLER_0_0_176
*289 FILLER_0_0_184
*290 FILLER_0_0_27
*291 FILLER_0_0_29
*292 FILLER_0_0_3
*293 FILLER_0_0_46
*294 FILLER_0_0_54
*295 FILLER_0_0_57
*296 FILLER_0_0_69
*297 FILLER_0_0_81
*298 FILLER_0_0_85
*299 FILLER_0_0_97
*300 FILLER_0_10_105
*301 FILLER_0_10_117
*302 FILLER_0_10_128
*303 FILLER_0_10_13
*304 FILLER_0_10_160
*305 FILLER_0_10_168
*306 FILLER_0_10_178
*307 FILLER_0_10_25
*308 FILLER_0_10_3
*309 FILLER_0_10_41
*310 FILLER_0_10_51
*311 FILLER_0_10_59
*312 FILLER_0_10_67
*313 FILLER_0_10_7
*314 FILLER_0_10_79
*315 FILLER_0_10_83
*316 FILLER_0_10_85
*317 FILLER_0_10_97
*318 FILLER_0_11_103
*319 FILLER_0_11_11
*320 FILLER_0_11_113
*321 FILLER_0_11_118
*322 FILLER_0_11_137
*323 FILLER_0_11_159
*324 FILLER_0_11_167
*325 FILLER_0_11_169
*326 FILLER_0_11_189
*327 FILLER_0_11_19
*328 FILLER_0_11_3
*329 FILLER_0_11_31
*330 FILLER_0_11_38
*331 FILLER_0_11_50
*332 FILLER_0_11_54
*333 FILLER_0_11_62
*334 FILLER_0_11_74
*335 FILLER_0_11_91
*336 FILLER_0_12_103
*337 FILLER_0_12_132
*338 FILLER_0_12_15
*339 FILLER_0_12_154
*340 FILLER_0_12_166
*341 FILLER_0_12_178
*342 FILLER_0_12_182
*343 FILLER_0_12_27
*344 FILLER_0_12_29
*345 FILLER_0_12_3
*346 FILLER_0_12_33
*347 FILLER_0_12_50
*348 FILLER_0_12_62
*349 FILLER_0_12_66
*350 FILLER_0_12_79
*351 FILLER_0_12_83
*352 FILLER_0_13_111
*353 FILLER_0_13_137
*354 FILLER_0_13_14
*355 FILLER_0_13_149
*356 FILLER_0_13_161
*357 FILLER_0_13_167
*358 FILLER_0_13_169
*359 FILLER_0_13_183
*360 FILLER_0_13_189
*361 FILLER_0_13_26
*362 FILLER_0_13_3
*363 FILLER_0_13_38
*364 FILLER_0_13_44
*365 FILLER_0_13_48
*366 FILLER_0_13_57
*367 FILLER_0_13_69
*368 FILLER_0_13_77
*369 FILLER_0_13_94
*370 FILLER_0_14_111
*371 FILLER_0_14_124
*372 FILLER_0_14_128
*373 FILLER_0_14_132
*374 FILLER_0_14_139
*375 FILLER_0_14_141
*376 FILLER_0_14_15
*377 FILLER_0_14_153
*378 FILLER_0_14_165
*379 FILLER_0_14_179
*380 FILLER_0_14_26
*381 FILLER_0_14_36
*382 FILLER_0_14_40
*383 FILLER_0_14_48
*384 FILLER_0_14_54
*385 FILLER_0_14_58
*386 FILLER_0_14_7
*387 FILLER_0_14_80
*388 FILLER_0_14_85
*389 FILLER_0_15_100
*390 FILLER_0_15_113
*391 FILLER_0_15_132
*392 FILLER_0_15_144
*393 FILLER_0_15_148
*394 FILLER_0_15_156
*395 FILLER_0_15_169
*396 FILLER_0_15_187
*397 FILLER_0_15_3
*398 FILLER_0_15_57
*399 FILLER_0_15_65
*400 FILLER_0_15_7
*401 FILLER_0_15_82
*402 FILLER_0_15_94
*403 FILLER_0_16_101
*404 FILLER_0_16_113
*405 FILLER_0_16_117
*406 FILLER_0_16_134
*407 FILLER_0_16_141
*408 FILLER_0_16_15
*409 FILLER_0_16_162
*410 FILLER_0_16_167
*411 FILLER_0_16_179
*412 FILLER_0_16_187
*413 FILLER_0_16_27
*414 FILLER_0_16_29
*415 FILLER_0_16_41
*416 FILLER_0_16_65
*417 FILLER_0_16_85
*418 FILLER_0_16_91
*419 FILLER_0_17_101
*420 FILLER_0_17_107
*421 FILLER_0_17_111
*422 FILLER_0_17_123
*423 FILLER_0_17_135
*424 FILLER_0_17_147
*425 FILLER_0_17_15
*426 FILLER_0_17_151
*427 FILLER_0_17_181
*428 FILLER_0_17_3
*429 FILLER_0_17_39
*430 FILLER_0_17_48
*431 FILLER_0_17_57
*432 FILLER_0_17_69
*433 FILLER_0_17_81
*434 FILLER_0_17_89
*435 FILLER_0_18_117
*436 FILLER_0_18_127
*437 FILLER_0_18_139
*438 FILLER_0_18_141
*439 FILLER_0_18_15
*440 FILLER_0_18_153
*441 FILLER_0_18_160
*442 FILLER_0_18_179
*443 FILLER_0_18_19
*444 FILLER_0_18_24
*445 FILLER_0_18_29
*446 FILLER_0_18_3
*447 FILLER_0_18_41
*448 FILLER_0_18_53
*449 FILLER_0_18_65
*450 FILLER_0_18_77
*451 FILLER_0_18_83
*452 FILLER_0_18_85
*453 FILLER_0_19_105
*454 FILLER_0_19_111
*455 FILLER_0_19_121
*456 FILLER_0_19_132
*457 FILLER_0_19_144
*458 FILLER_0_19_15
*459 FILLER_0_19_156
*460 FILLER_0_19_169
*461 FILLER_0_19_177
*462 FILLER_0_19_186
*463 FILLER_0_19_27
*464 FILLER_0_19_3
*465 FILLER_0_19_34
*466 FILLER_0_19_46
*467 FILLER_0_19_55
*468 FILLER_0_19_57
*469 FILLER_0_19_88
*470 FILLER_0_1_111
*471 FILLER_0_1_125
*472 FILLER_0_1_145
*473 FILLER_0_1_15
*474 FILLER_0_1_150
*475 FILLER_0_1_162
*476 FILLER_0_1_169
*477 FILLER_0_1_175
*478 FILLER_0_1_179
*479 FILLER_0_1_187
*480 FILLER_0_1_27
*481 FILLER_0_1_3
*482 FILLER_0_1_35
*483 FILLER_0_1_42
*484 FILLER_0_1_48
*485 FILLER_0_1_57
*486 FILLER_0_1_69
*487 FILLER_0_1_81
*488 FILLER_0_1_89
*489 FILLER_0_20_101
*490 FILLER_0_20_115
*491 FILLER_0_20_129
*492 FILLER_0_20_137
*493 FILLER_0_20_145
*494 FILLER_0_20_157
*495 FILLER_0_20_168
*496 FILLER_0_20_180
*497 FILLER_0_20_186
*498 FILLER_0_20_19
*499 FILLER_0_20_27
*500 FILLER_0_20_29
*501 FILLER_0_20_41
*502 FILLER_0_20_45
*503 FILLER_0_20_7
*504 FILLER_0_20_82
*505 FILLER_0_21_109
*506 FILLER_0_21_120
*507 FILLER_0_21_132
*508 FILLER_0_21_144
*509 FILLER_0_21_15
*510 FILLER_0_21_156
*511 FILLER_0_21_166
*512 FILLER_0_21_169
*513 FILLER_0_21_185
*514 FILLER_0_21_189
*515 FILLER_0_21_3
*516 FILLER_0_21_33
*517 FILLER_0_21_45
*518 FILLER_0_21_53
*519 FILLER_0_21_57
*520 FILLER_0_21_80
*521 FILLER_0_21_84
*522 FILLER_0_21_88
*523 FILLER_0_21_92
*524 FILLER_0_22_108
*525 FILLER_0_22_120
*526 FILLER_0_22_129
*527 FILLER_0_22_13
*528 FILLER_0_22_141
*529 FILLER_0_22_153
*530 FILLER_0_22_165
*531 FILLER_0_22_17
*532 FILLER_0_22_177
*533 FILLER_0_22_189
*534 FILLER_0_22_25
*535 FILLER_0_22_29
*536 FILLER_0_22_3
*537 FILLER_0_22_41
*538 FILLER_0_22_53
*539 FILLER_0_22_65
*540 FILLER_0_22_77
*541 FILLER_0_22_83
*542 FILLER_0_22_85
*543 FILLER_0_22_97
*544 FILLER_0_23_111
*545 FILLER_0_23_117
*546 FILLER_0_23_125
*547 FILLER_0_23_148
*548 FILLER_0_23_160
*549 FILLER_0_23_169
*550 FILLER_0_23_176
*551 FILLER_0_23_184
*552 FILLER_0_23_19
*553 FILLER_0_23_31
*554 FILLER_0_23_43
*555 FILLER_0_23_57
*556 FILLER_0_23_69
*557 FILLER_0_23_7
*558 FILLER_0_23_81
*559 FILLER_0_23_92
*560 FILLER_0_24_103
*561 FILLER_0_24_120
*562 FILLER_0_24_132
*563 FILLER_0_24_141
*564 FILLER_0_24_152
*565 FILLER_0_24_165
*566 FILLER_0_24_177
*567 FILLER_0_24_18
*568 FILLER_0_24_189
*569 FILLER_0_24_26
*570 FILLER_0_24_29
*571 FILLER_0_24_41
*572 FILLER_0_24_48
*573 FILLER_0_24_6
*574 FILLER_0_24_60
*575 FILLER_0_24_72
*576 FILLER_0_24_85
*577 FILLER_0_24_97
*578 FILLER_0_25_105
*579 FILLER_0_25_111
*580 FILLER_0_25_138
*581 FILLER_0_25_150
*582 FILLER_0_25_156
*583 FILLER_0_25_162
*584 FILLER_0_25_169
*585 FILLER_0_25_181
*586 FILLER_0_25_189
*587 FILLER_0_25_19
*588 FILLER_0_25_3
*589 FILLER_0_25_31
*590 FILLER_0_25_39
*591 FILLER_0_25_44
*592 FILLER_0_25_57
*593 FILLER_0_25_69
*594 FILLER_0_25_81
*595 FILLER_0_25_93
*596 FILLER_0_26_106
*597 FILLER_0_26_114
*598 FILLER_0_26_121
*599 FILLER_0_26_133
*600 FILLER_0_26_139
*601 FILLER_0_26_141
*602 FILLER_0_26_149
*603 FILLER_0_26_163
*604 FILLER_0_26_173
*605 FILLER_0_26_181
*606 FILLER_0_26_19
*607 FILLER_0_26_27
*608 FILLER_0_26_29
*609 FILLER_0_26_35
*610 FILLER_0_26_7
*611 FILLER_0_26_70
*612 FILLER_0_26_78
*613 FILLER_0_26_91
*614 FILLER_0_26_99
*615 FILLER_0_27_106
*616 FILLER_0_27_113
*617 FILLER_0_27_125
*618 FILLER_0_27_137
*619 FILLER_0_27_141
*620 FILLER_0_27_145
*621 FILLER_0_27_15
*622 FILLER_0_27_153
*623 FILLER_0_27_165
*624 FILLER_0_27_169
*625 FILLER_0_27_181
*626 FILLER_0_27_27
*627 FILLER_0_27_3
*628 FILLER_0_27_36
*629 FILLER_0_27_48
*630 FILLER_0_27_57
*631 FILLER_0_27_69
*632 FILLER_0_27_81
*633 FILLER_0_27_85
*634 FILLER_0_27_94
*635 FILLER_0_2_102
*636 FILLER_0_2_129
*637 FILLER_0_2_137
*638 FILLER_0_2_141
*639 FILLER_0_2_153
*640 FILLER_0_2_159
*641 FILLER_0_2_164
*642 FILLER_0_2_176
*643 FILLER_0_2_180
*644 FILLER_0_2_20
*645 FILLER_0_2_29
*646 FILLER_0_2_3
*647 FILLER_0_2_41
*648 FILLER_0_2_53
*649 FILLER_0_2_65
*650 FILLER_0_2_77
*651 FILLER_0_2_83
*652 FILLER_0_2_85
*653 FILLER_0_2_96
*654 FILLER_0_3_10
*655 FILLER_0_3_102
*656 FILLER_0_3_111
*657 FILLER_0_3_133
*658 FILLER_0_3_145
*659 FILLER_0_3_157
*660 FILLER_0_3_165
*661 FILLER_0_3_18
*662 FILLER_0_3_188
*663 FILLER_0_3_3
*664 FILLER_0_3_30
*665 FILLER_0_3_41
*666 FILLER_0_3_49
*667 FILLER_0_3_55
*668 FILLER_0_3_57
*669 FILLER_0_3_62
*670 FILLER_0_3_7
*671 FILLER_0_3_74
*672 FILLER_0_3_86
*673 FILLER_0_3_98
*674 FILLER_0_4_105
*675 FILLER_0_4_126
*676 FILLER_0_4_138
*677 FILLER_0_4_141
*678 FILLER_0_4_15
*679 FILLER_0_4_153
*680 FILLER_0_4_165
*681 FILLER_0_4_177
*682 FILLER_0_4_189
*683 FILLER_0_4_21
*684 FILLER_0_4_27
*685 FILLER_0_4_29
*686 FILLER_0_4_41
*687 FILLER_0_4_53
*688 FILLER_0_4_69
*689 FILLER_0_4_81
*690 FILLER_0_4_85
*691 FILLER_0_4_97
*692 FILLER_0_5_109
*693 FILLER_0_5_11
*694 FILLER_0_5_113
*695 FILLER_0_5_125
*696 FILLER_0_5_137
*697 FILLER_0_5_141
*698 FILLER_0_5_159
*699 FILLER_0_5_167
*700 FILLER_0_5_177
*701 FILLER_0_5_185
*702 FILLER_0_5_3
*703 FILLER_0_5_36
*704 FILLER_0_5_42
*705 FILLER_0_5_46
*706 FILLER_0_5_50
*707 FILLER_0_5_73
*708 FILLER_0_5_85
*709 FILLER_0_5_97
*710 FILLER_0_6_109
*711 FILLER_0_6_121
*712 FILLER_0_6_130
*713 FILLER_0_6_138
*714 FILLER_0_6_141
*715 FILLER_0_6_145
*716 FILLER_0_6_149
*717 FILLER_0_6_154
*718 FILLER_0_6_166
*719 FILLER_0_6_172
*720 FILLER_0_6_184
*721 FILLER_0_6_19
*722 FILLER_0_6_39
*723 FILLER_0_6_48
*724 FILLER_0_6_54
*725 FILLER_0_6_58
*726 FILLER_0_6_70
*727 FILLER_0_6_82
*728 FILLER_0_6_85
*729 FILLER_0_6_97
*730 FILLER_0_7_104
*731 FILLER_0_7_113
*732 FILLER_0_7_125
*733 FILLER_0_7_137
*734 FILLER_0_7_149
*735 FILLER_0_7_161
*736 FILLER_0_7_167
*737 FILLER_0_7_175
*738 FILLER_0_7_19
*739 FILLER_0_7_3
*740 FILLER_0_7_38
*741 FILLER_0_7_50
*742 FILLER_0_7_57
*743 FILLER_0_7_68
*744 FILLER_0_7_80
*745 FILLER_0_7_9
*746 FILLER_0_7_92
*747 FILLER_0_8_101
*748 FILLER_0_8_107
*749 FILLER_0_8_119
*750 FILLER_0_8_131
*751 FILLER_0_8_136
*752 FILLER_0_8_141
*753 FILLER_0_8_147
*754 FILLER_0_8_15
*755 FILLER_0_8_158
*756 FILLER_0_8_168
*757 FILLER_0_8_180
*758 FILLER_0_8_27
*759 FILLER_0_8_3
*760 FILLER_0_8_36
*761 FILLER_0_8_41
*762 FILLER_0_8_53
*763 FILLER_0_8_65
*764 FILLER_0_8_73
*765 FILLER_0_8_81
*766 FILLER_0_8_85
*767 FILLER_0_8_97
*768 FILLER_0_9_103
*769 FILLER_0_9_111
*770 FILLER_0_9_113
*771 FILLER_0_9_121
*772 FILLER_0_9_126
*773 FILLER_0_9_159
*774 FILLER_0_9_167
*775 FILLER_0_9_169
*776 FILLER_0_9_181
*777 FILLER_0_9_189
*778 FILLER_0_9_19
*779 FILLER_0_9_31
*780 FILLER_0_9_35
*781 FILLER_0_9_39
*782 FILLER_0_9_49
*783 FILLER_0_9_55
*784 FILLER_0_9_57
*785 FILLER_0_9_69
*786 FILLER_0_9_81
*787 FILLER_0_9_93
*788 FILLER_0_9_99
*789 PHY_EDGE_ROW_0_Left_28
*790 PHY_EDGE_ROW_0_Right_0
*791 PHY_EDGE_ROW_10_Left_38
*792 PHY_EDGE_ROW_10_Right_10
*793 PHY_EDGE_ROW_11_Left_39
*794 PHY_EDGE_ROW_11_Right_11
*795 PHY_EDGE_ROW_12_Left_40
*796 PHY_EDGE_ROW_12_Right_12
*797 PHY_EDGE_ROW_13_Left_41
*798 PHY_EDGE_ROW_13_Right_13
*799 PHY_EDGE_ROW_14_Left_42
*800 PHY_EDGE_ROW_14_Right_14
*801 PHY_EDGE_ROW_15_Left_43
*802 PHY_EDGE_ROW_15_Right_15
*803 PHY_EDGE_ROW_16_Left_44
*804 PHY_EDGE_ROW_16_Right_16
*805 PHY_EDGE_ROW_17_Left_45
*806 PHY_EDGE_ROW_17_Right_17
*807 PHY_EDGE_ROW_18_Left_46
*808 PHY_EDGE_ROW_18_Right_18
*809 PHY_EDGE_ROW_19_Left_47
*810 PHY_EDGE_ROW_19_Right_19
*811 PHY_EDGE_ROW_1_Left_29
*812 PHY_EDGE_ROW_1_Right_1
*813 PHY_EDGE_ROW_20_Left_48
*814 PHY_EDGE_ROW_20_Right_20
*815 PHY_EDGE_ROW_21_Left_49
*816 PHY_EDGE_ROW_21_Right_21
*817 PHY_EDGE_ROW_22_Left_50
*818 PHY_EDGE_ROW_22_Right_22
*819 PHY_EDGE_ROW_23_Left_51
*820 PHY_EDGE_ROW_23_Right_23
*821 PHY_EDGE_ROW_24_Left_52
*822 PHY_EDGE_ROW_24_Right_24
*823 PHY_EDGE_ROW_25_Left_53
*824 PHY_EDGE_ROW_25_Right_25
*825 PHY_EDGE_ROW_26_Left_54
*826 PHY_EDGE_ROW_26_Right_26
*827 PHY_EDGE_ROW_27_Left_55
*828 PHY_EDGE_ROW_27_Right_27
*829 PHY_EDGE_ROW_2_Left_30
*830 PHY_EDGE_ROW_2_Right_2
*831 PHY_EDGE_ROW_3_Left_31
*832 PHY_EDGE_ROW_3_Right_3
*833 PHY_EDGE_ROW_4_Left_32
*834 PHY_EDGE_ROW_4_Right_4
*835 PHY_EDGE_ROW_5_Left_33
*836 PHY_EDGE_ROW_5_Right_5
*837 PHY_EDGE_ROW_6_Left_34
*838 PHY_EDGE_ROW_6_Right_6
*839 PHY_EDGE_ROW_7_Left_35
*840 PHY_EDGE_ROW_7_Right_7
*841 PHY_EDGE_ROW_8_Left_36
*842 PHY_EDGE_ROW_8_Right_8
*843 PHY_EDGE_ROW_9_Left_37
*844 PHY_EDGE_ROW_9_Right_9
*845 TAP_TAPCELL_ROW_0_56
*846 TAP_TAPCELL_ROW_0_57
*847 TAP_TAPCELL_ROW_0_58
*848 TAP_TAPCELL_ROW_0_59
*849 TAP_TAPCELL_ROW_0_60
*850 TAP_TAPCELL_ROW_0_61
*851 TAP_TAPCELL_ROW_10_89
*852 TAP_TAPCELL_ROW_10_90
*853 TAP_TAPCELL_ROW_10_91
*854 TAP_TAPCELL_ROW_11_92
*855 TAP_TAPCELL_ROW_11_93
*856 TAP_TAPCELL_ROW_11_94
*857 TAP_TAPCELL_ROW_12_95
*858 TAP_TAPCELL_ROW_12_96
*859 TAP_TAPCELL_ROW_12_97
*860 TAP_TAPCELL_ROW_13_100
*861 TAP_TAPCELL_ROW_13_98
*862 TAP_TAPCELL_ROW_13_99
*863 TAP_TAPCELL_ROW_14_101
*864 TAP_TAPCELL_ROW_14_102
*865 TAP_TAPCELL_ROW_14_103
*866 TAP_TAPCELL_ROW_15_104
*867 TAP_TAPCELL_ROW_15_105
*868 TAP_TAPCELL_ROW_15_106
*869 TAP_TAPCELL_ROW_16_107
*870 TAP_TAPCELL_ROW_16_108
*871 TAP_TAPCELL_ROW_16_109
*872 TAP_TAPCELL_ROW_17_110
*873 TAP_TAPCELL_ROW_17_111
*874 TAP_TAPCELL_ROW_17_112
*875 TAP_TAPCELL_ROW_18_113
*876 TAP_TAPCELL_ROW_18_114
*877 TAP_TAPCELL_ROW_18_115
*878 TAP_TAPCELL_ROW_19_116
*879 TAP_TAPCELL_ROW_19_117
*880 TAP_TAPCELL_ROW_19_118
*881 TAP_TAPCELL_ROW_1_62
*882 TAP_TAPCELL_ROW_1_63
*883 TAP_TAPCELL_ROW_1_64
*884 TAP_TAPCELL_ROW_20_119
*885 TAP_TAPCELL_ROW_20_120
*886 TAP_TAPCELL_ROW_20_121
*887 TAP_TAPCELL_ROW_21_122
*888 TAP_TAPCELL_ROW_21_123
*889 TAP_TAPCELL_ROW_21_124
*890 TAP_TAPCELL_ROW_22_125
*891 TAP_TAPCELL_ROW_22_126
*892 TAP_TAPCELL_ROW_22_127
*893 TAP_TAPCELL_ROW_23_128
*894 TAP_TAPCELL_ROW_23_129
*895 TAP_TAPCELL_ROW_23_130
*896 TAP_TAPCELL_ROW_24_131
*897 TAP_TAPCELL_ROW_24_132
*898 TAP_TAPCELL_ROW_24_133
*899 TAP_TAPCELL_ROW_25_134
*900 TAP_TAPCELL_ROW_25_135
*901 TAP_TAPCELL_ROW_25_136
*902 TAP_TAPCELL_ROW_26_137
*903 TAP_TAPCELL_ROW_26_138
*904 TAP_TAPCELL_ROW_26_139
*905 TAP_TAPCELL_ROW_27_140
*906 TAP_TAPCELL_ROW_27_141
*907 TAP_TAPCELL_ROW_27_142
*908 TAP_TAPCELL_ROW_27_143
*909 TAP_TAPCELL_ROW_27_144
*910 TAP_TAPCELL_ROW_27_145
*911 TAP_TAPCELL_ROW_2_65
*912 TAP_TAPCELL_ROW_2_66
*913 TAP_TAPCELL_ROW_2_67
*914 TAP_TAPCELL_ROW_3_68
*915 TAP_TAPCELL_ROW_3_69
*916 TAP_TAPCELL_ROW_3_70
*917 TAP_TAPCELL_ROW_4_71
*918 TAP_TAPCELL_ROW_4_72
*919 TAP_TAPCELL_ROW_4_73
*920 TAP_TAPCELL_ROW_5_74
*921 TAP_TAPCELL_ROW_5_75
*922 TAP_TAPCELL_ROW_5_76
*923 TAP_TAPCELL_ROW_6_77
*924 TAP_TAPCELL_ROW_6_78
*925 TAP_TAPCELL_ROW_6_79
*926 TAP_TAPCELL_ROW_7_80
*927 TAP_TAPCELL_ROW_7_81
*928 TAP_TAPCELL_ROW_7_82
*929 TAP_TAPCELL_ROW_8_83
*930 TAP_TAPCELL_ROW_8_84
*931 TAP_TAPCELL_ROW_8_85
*932 TAP_TAPCELL_ROW_9_86
*933 TAP_TAPCELL_ROW_9_87
*934 TAP_TAPCELL_ROW_9_88
*935 _215_
*936 _216_
*937 _217_
*938 _218_
*939 _219_
*940 _220_
*941 _221_
*942 _222_
*943 _223_
*944 _224_
*945 _225_
*946 _226_
*947 _227_
*948 _228_
*949 _229_
*950 _230_
*951 _231_
*952 _232_
*953 _233_
*954 _234_
*955 _235_
*956 _236_
*957 _237_
*958 _238_
*959 _239_
*960 _240_
*961 _241_
*962 _242_
*963 _243_
*964 _244_
*965 _245_
*966 _246_
*967 _247_
*968 _248_
*969 _249_
*970 _250_
*971 _251_
*972 _252_
*973 _253_
*974 _254_
*975 _255_
*976 _256_
*977 _257_
*978 _258_
*979 _259_
*980 _260_
*981 _261_
*982 _262_
*983 _263_
*984 _264_
*985 _265_
*986 _266_
*987 _267_
*988 _268_
*989 _269_
*990 _270_
*991 _271_
*992 _272_
*993 _273_
*994 _274_
*995 _275_
*996 _276_
*997 _277_
*998 _278_
*999 _279_
*1000 _280_
*1001 _281_
*1002 _282_
*1003 _283_
*1004 _284_
*1005 _285_
*1006 _286_
*1007 _287_
*1008 _288_
*1009 _289_
*1010 _290_
*1011 _291_
*1012 _292_
*1013 _293_
*1014 _294_
*1015 _295_
*1016 _296_
*1017 _297_
*1018 _298_
*1019 _299_
*1020 _300_
*1021 _301_
*1022 _302_
*1023 _303_
*1024 _304_
*1025 _305_
*1026 _306_
*1027 _307_
*1028 _308_
*1029 _309_
*1030 _310_
*1031 _311_
*1032 _312_
*1033 _313_
*1034 _314_
*1035 _315_
*1036 _316_
*1037 _317_
*1038 _318_
*1039 _319_
*1040 _320_
*1041 _321_
*1042 _322_
*1043 _323_
*1044 _324_
*1045 _325_
*1046 _326_
*1047 _327_
*1048 _328_
*1049 _329_
*1050 _330_
*1051 _331_
*1052 _332_
*1053 _333_
*1054 _334_
*1055 _335_
*1056 _336_
*1057 _337_
*1058 _338_
*1059 _339_
*1060 _340_
*1061 _341_
*1062 _342_
*1063 _343_
*1064 _344_
*1065 _345_
*1066 _346_
*1067 _347_
*1068 _348_
*1069 _349_
*1070 _350_
*1071 _351_
*1072 _352_
*1073 _353_
*1074 _354_
*1075 _355_
*1076 _356_
*1077 _357_
*1078 _358_
*1079 _359_
*1080 _360_
*1081 _361_
*1082 _362_
*1083 _363_
*1084 _364_
*1085 _365_
*1086 _366_
*1087 _367_
*1088 _368_
*1089 _369_
*1090 _370_
*1091 _371_
*1092 _372_
*1093 _373_
*1094 _374_
*1095 _375_
*1096 _376_
*1097 _377_
*1098 _378_
*1099 _379_
*1100 _380_
*1101 _381_
*1102 _382_
*1103 _383_
*1104 _384_
*1105 _385_
*1106 _386_
*1107 _387_
*1108 _388_
*1109 _389_
*1110 _390_
*1111 _391_
*1112 _392_
*1113 _393_
*1114 _394_
*1115 _395_
*1116 _396_
*1117 _397_
*1118 _398_
*1119 _399_
*1120 _400_
*1121 _401_
*1122 _402_
*1123 _403_
*1124 _404_
*1125 _405_
*1126 _406_
*1127 _407_
*1128 _408_
*1129 _409_
*1130 _410_
*1131 _411_
*1132 _412_
*1133 _413_
*1134 _414_
*1135 _415_
*1136 _416_
*1137 _417_
*1138 _418_
*1139 _419_
*1140 _420_
*1141 _421_
*1142 _422_
*1143 _423_
*1144 _424_
*1145 _425_
*1146 _426_
*1147 _427_
*1148 _428_
*1149 _429_
*1150 _430_
*1151 _431_
*1152 _432_
*1153 _433_
*1154 _434_
*1155 _435_
*1156 _436_
*1157 _437_
*1158 _438_
*1159 _439_
*1160 _440_
*1161 _441_
*1162 _442_
*1163 _443_
*1164 _444_
*1165 _445_
*1166 _446_
*1167 _447_
*1168 _448_
*1169 _449_
*1170 _450_
*1171 _451_
*1172 _452_
*1173 _453_
*1174 _454_
*1175 _455_
*1176 _456_
*1177 _457_
*1178 _458_
*1179 _459_
*1180 _460_
*1181 _461_
*1182 _462_
*1183 _463_
*1184 _464_
*1185 clkbuf_0_CLK100MHZ
*1186 clkbuf_1_0__f_CLK100MHZ
*1187 clkbuf_1_1__f_CLK100MHZ
*1188 clkload0
*1189 input1
*1190 input2
*1191 output3
*1192 output4
*1193 output5
*1194 output6
*1195 output7
*1196 output8
*1197 output9
*1198 top_module_10
*1199 top_module_11
*1200 top_module_12
*1201 top_module_13

*PORTS
BTNR I
BTNU I
CLK100MHZ I
an[0] O
an[1] O
an[2] O
an[3] O
seg[0] O
seg[1] O
seg[2] O
seg[3] O
seg[4] O
seg[5] O
seg[6] O

*D_NET *1 0.000748393
*CONN
*P BTNR I
*I *1189:A I *D sky130_fd_sc_hd__clkbuf_2
*CAP
1 BTNR 0.000315036
2 *1189:A 0.000315036
3 *1189:A *147:16 1.79536e-05
4 *1189:A *152:42 7.93229e-05
5 *1189:A *168:55 2.10433e-05
*RES
1 BTNR *1189:A 7.1793 
*END

*D_NET *2 0.000850606
*CONN
*P BTNU I
*I *1190:A I *D sky130_fd_sc_hd__buf_2
*CAP
1 BTNU 0.000382502
2 *1190:A 0.000382502
3 *1190:A *1023:S 4.66108e-05
4 *1190:A *168:55 2.10433e-05
5 *1190:A *187:24 1.79483e-05
*RES
1 BTNU *1190:A 6.8343 
*END

*D_NET *3 0.0139943
*CONN
*P CLK100MHZ I
*I *1185:A I *D sky130_fd_sc_hd__clkbuf_16
*CAP
1 CLK100MHZ 0.00348855
2 *1185:A 0.00348855
3 *1185:A *1011:A1 0.00155802
4 *1185:A *1041:A0 0.000278666
5 *1185:A *1065:B 0.00198035
6 *1185:A *1080:B 0.000280988
7 *1185:A *1081:A 0.000294468
8 *1185:A *1186:A 0.00029774
9 *1185:A *64:32 5.74889e-05
10 *1185:A *95:18 0.000658816
11 *1185:A *103:32 1.7635e-05
12 *1185:A *163:18 0.000116956
13 *1185:A *187:24 0.00080838
14 *1185:A *204:28 0.000416442
15 *1185:A *210:28 0.000193729
16 *1185:A *236:39 5.74791e-05
*RES
1 CLK100MHZ *1185:A 17.5708 
*END

*D_NET *6 0.00142564
*CONN
*P an[0] O
*I *1198:LO O *D sky130_fd_sc_hd__conb_1
*CAP
1 an[0] 0.00071282
2 *1198:LO 0.00071282
*RES
1 *1198:LO an[0] 10.8929 
*END

*D_NET *7 0.000815142
*CONN
*P an[1] O
*I *1199:HI O *D sky130_fd_sc_hd__conb_1
*CAP
1 an[1] 0.000373032
2 *1199:HI 0.000373032
3 an[1] *998:A 6.90776e-05
*RES
1 *1199:HI an[1] 5.07983 
*END

*D_NET *8 0.000530348
*CONN
*P an[2] O
*I *1200:HI O *D sky130_fd_sc_hd__conb_1
*CAP
1 an[2] 0.000265174
2 *1200:HI 0.000265174
3 an[2] *1098:A2 0
4 an[2] *135:10 0
*RES
1 *1200:HI an[2] 5.41503 
*END

*D_NET *9 0.000550109
*CONN
*P an[3] O
*I *1201:HI O *D sky130_fd_sc_hd__conb_1
*CAP
1 an[3] 0.000236011
2 *1201:HI 0.000236011
3 an[3] *1029:A1 1.88656e-05
4 an[3] *106:37 5.92221e-05
5 an[3] *128:38 0
*RES
1 *1201:HI an[3] 4.90503 
*END

*D_NET *10 0.000638297
*CONN
*P seg[0] O
*I *1191:X O *D sky130_fd_sc_hd__buf_1
*CAP
1 seg[0] 0.000280264
2 *1191:X 0.000280264
3 seg[0] *1029:A1 1.88656e-05
4 seg[0] *1050:A0 1.12156e-05
5 seg[0] *1196:A 4.76884e-05
*RES
1 *1191:X seg[0] 4.90503 
*END

*D_NET *11 0.000618298
*CONN
*P seg[1] O
*I *1192:X O *D sky130_fd_sc_hd__buf_1
*CAP
1 seg[1] 0.00029386
2 *1192:X 0.00029386
3 seg[1] *1029:A1 1.88656e-05
4 seg[1] *1050:A0 1.17114e-05
*RES
1 *1192:X seg[1] 4.90503 
*END

*D_NET *12 0.00120352
*CONN
*P seg[2] O
*I *1193:X O *D sky130_fd_sc_hd__buf_1
*CAP
1 seg[2] 0.000446932
2 *1193:X 0.000446932
3 seg[2] *967:A 3.93456e-05
4 seg[2] *1050:S 1.37596e-05
5 seg[2] *1080:B 2.69713e-05
6 seg[2] *1153:A 7.70233e-05
7 seg[2] *48:38 6.89024e-05
8 seg[2] *166:26 8.36502e-05
*RES
1 *1193:X seg[2] 5.50963 
*END

*D_NET *13 0.000821377
*CONN
*P seg[3] O
*I *1194:X O *D sky130_fd_sc_hd__buf_1
*CAP
1 seg[3] 0.000390974
2 *1194:X 0.000390974
3 seg[3] *988:A 2.05641e-05
4 seg[3] *1080:B 0
5 seg[3] *166:26 0
6 seg[3] *180:43 1.88656e-05
*RES
1 *1194:X seg[3] 5.1381 
*END

*D_NET *14 0.000644515
*CONN
*P seg[4] O
*I *1195:X O *D sky130_fd_sc_hd__buf_1
*CAP
1 seg[4] 0.000211081
2 *1195:X 0.000211081
3 seg[4] *1196:A 9.58678e-06
4 seg[4] *128:12 1.97486e-05
5 seg[4] *150:48 0.000193017
6 seg[4] *216:79 0
*RES
1 *1195:X seg[4] 4.90503 
*END

*D_NET *15 0.000536314
*CONN
*P seg[5] O
*I *1196:X O *D sky130_fd_sc_hd__buf_1
*CAP
1 seg[5] 0.000178357
2 *1196:X 0.000178357
3 seg[5] *128:12 2.05641e-05
4 seg[5] *166:26 7.79155e-05
5 seg[5] *216:79 8.11212e-05
*RES
1 *1196:X seg[5] 4.90503 
*END

*D_NET *16 0.000758862
*CONN
*P seg[6] O
*I *1197:X O *D sky130_fd_sc_hd__buf_1
*CAP
1 seg[6] 0.000379431
2 *1197:X 0.000379431
3 seg[6] *1165:D 0
4 seg[6] *166:26 0
*RES
1 *1197:X seg[6] 6.94503 
*END

*D_NET *17 0.00367707
*CONN
*I *1182:RESET_B I *D sky130_fd_sc_hd__dfrtp_2
*I *1154:Y O *D sky130_fd_sc_hd__inv_2
*CAP
1 *1182:RESET_B 0.000623412
2 *1154:Y 0.000623412
3 *1182:RESET_B *967:A 0.000459069
4 *1182:RESET_B *1004:A1 0.000622012
5 *1182:RESET_B *1006:A3 1.71207e-05
6 *1182:RESET_B *1037:B1 0.00014104
7 *1182:RESET_B *1051:A1 9.10613e-05
8 *1182:RESET_B *1057:A 7.06865e-05
9 *1182:RESET_B *1080:A 1.16578e-05
10 *1182:RESET_B *1153:A 3.03177e-05
11 *1182:RESET_B *206:34 0.000489569
12 *1182:RESET_B *235:10 6.03947e-05
13 *1182:RESET_B *260:40 0.000437323
*RES
1 *1154:Y *1182:RESET_B 22.2125 
*END

*D_NET *18 0.00217165
*CONN
*I *1183:RESET_B I *D sky130_fd_sc_hd__dfrtp_4
*I *1155:Y O *D sky130_fd_sc_hd__inv_2
*CAP
1 *1183:RESET_B 0.000692117
2 *1155:Y 0.000692117
3 *1183:RESET_B *956:A 9.5799e-06
4 *1183:RESET_B *981:A1 0
5 *1183:RESET_B *981:B1 1.79536e-05
6 *1183:RESET_B *1023:A0 0
7 *1183:RESET_B *1026:A0 0
8 *1183:RESET_B *1157:D 2.86555e-05
9 *1183:RESET_B *1183:CLK 0.000199759
10 *1183:RESET_B *1183:D 4.20634e-05
11 *1183:RESET_B *120:26 0
12 *1183:RESET_B *233:41 0.000310276
13 *1183:RESET_B *233:47 0.000108629
14 *1183:RESET_B *252:54 7.05038e-05
15 *1183:RESET_B *265:16 0
*RES
1 *1155:Y *1183:RESET_B 18.0875 
*END

*D_NET *19 0.00961795
*CONN
*I *1184:RESET_B I *D sky130_fd_sc_hd__dfrtp_1
*I *1156:Y O *D sky130_fd_sc_hd__inv_2
*CAP
1 *1184:RESET_B 0.000686422
2 *1156:Y 0.000919656
3 *19:16 0.00160608
4 *1184:RESET_B *1021:A1 0.000483352
5 *1184:RESET_B *1021:A2 0.000413033
6 *1184:RESET_B *1022:B2 0.000390894
7 *1184:RESET_B *233:147 4.70477e-05
8 *1184:RESET_B *237:18 0.000116502
9 *19:16 *1001:A 0.000738485
10 *19:16 *1016:B1 0.000166343
11 *19:16 *1051:S 8.35683e-05
12 *19:16 *1083:B 0.000138106
13 *19:16 *1090:A 2.2142e-05
14 *19:16 *1091:A0 0.00153201
15 *19:16 *1092:A 8.53011e-05
16 *19:16 *1120:S 0.000222189
17 *19:16 *1156:A 3.16368e-05
18 *19:16 *42:14 0.00109658
19 *19:16 *221:43 0.000128214
20 *19:16 *239:39 0.000294706
21 *19:16 *250:29 0.000415677
*RES
1 *1156:Y *19:16 39.365 
2 *19:16 *1184:RESET_B 14.1975 
*END

*D_NET *20 0.00505311
*CONN
*I *1157:D I *D sky130_fd_sc_hd__dfxtp_1
*I *1086:X O *D sky130_fd_sc_hd__clkbuf_1
*CAP
1 *1157:D 0.000923281
2 *1086:X 0.000923281
3 *1157:D *1000:B1 8.33066e-06
4 *1157:D *1040:S 2.1553e-05
5 *1157:D *1048:B 0.000226455
6 *1157:D *1067:B 5.85064e-05
7 *1157:D *1076:A1 0.000116216
8 *1157:D *1161:D 0.000390782
9 *1157:D *1174:D 0.000940929
10 *1157:D *1183:CLK 0.000197683
11 *1157:D *134:10 0.000104533
12 *1157:D *233:41 0.000390237
13 *1157:D *233:47 0.000503146
14 *1157:D *233:137 0.000108401
15 *1157:D *233:143 4.02438e-05
16 *1157:D *255:83 7.0873e-05
17 *1183:RESET_B *1157:D 2.86555e-05
*RES
1 *1086:X *1157:D 29.9438 
*END

*D_NET *21 0.00810352
*CONN
*I *1158:D I *D sky130_fd_sc_hd__dfxtp_1
*I *1088:X O *D sky130_fd_sc_hd__clkbuf_1
*CAP
1 *1158:D 0.00176862
2 *1088:X 0.00176862
3 *1158:D *952:D 0.000198404
4 *1158:D *1006:A1 4.12831e-05
5 *1158:D *1009:A2 4.09857e-05
6 *1158:D *1010:B 7.96362e-05
7 *1158:D *1014:B 8.09126e-05
8 *1158:D *1018:A 3.03697e-05
9 *1158:D *1025:B1 0.000784131
10 *1158:D *1177:D 5.85735e-05
11 *1158:D *1183:D 7.67557e-05
12 *1158:D *83:20 0.000132666
13 *1158:D *84:83 2.39126e-05
14 *1158:D *100:65 0.000163688
15 *1158:D *104:10 7.22311e-05
16 *1158:D *120:76 0.000142956
17 *1158:D *145:75 0.000438275
18 *1158:D *146:32 6.9279e-05
19 *1158:D *157:30 0.000139918
20 *1158:D *167:38 7.81994e-05
21 *1158:D *174:73 7.91885e-05
22 *1158:D *227:67 7.90275e-05
23 *1158:D *247:18 0.000507406
24 *1158:D *247:71 0.00124847
*RES
1 *1088:X *1158:D 18.5602 
*END

*D_NET *22 0.00852823
*CONN
*I *1159:D I *D sky130_fd_sc_hd__dfxtp_1
*I *1090:X O *D sky130_fd_sc_hd__clkbuf_1
*CAP
1 *1159:D 0.00206989
2 *1090:X 0.00206989
3 *1159:D *944:A 4.66108e-05
4 *1159:D *981:A3 1.26626e-05
5 *1159:D *990:B 4.77769e-05
6 *1159:D *1031:A 7.0873e-05
7 *1159:D *1048:A 0.000206907
8 *1159:D *1051:A0 9.78596e-05
9 *1159:D *1120:S 2.20544e-05
10 *1159:D *1124:A1 0.000106321
11 *1159:D *1141:A 0.000249007
12 *1159:D *1145:A 0.00101178
13 *1159:D *1171:D 0.000383737
14 *1159:D *1184:D 4.41506e-05
15 *1159:D *133:8 6.09603e-05
16 *1159:D *139:18 0.000378201
17 *1159:D *153:24 7.21738e-05
18 *1159:D *161:32 0.00140081
19 *1159:D *229:22 8.35068e-05
20 *1159:D *256:22 9.30679e-05
*RES
1 *1090:X *1159:D 47.8688 
*END

*D_NET *23 0.0194008
*CONN
*I *1160:D I *D sky130_fd_sc_hd__dfxtp_1
*I *1092:X O *D sky130_fd_sc_hd__buf_1
*CAP
1 *1160:D 0.00361869
2 *1092:X 0.00361869
3 *1160:D *981:A3 0.00232462
4 *1160:D *1060:A 0.00109672
5 *1160:D *1065:A 0.00143074
6 *1160:D *1065:B 0.00253859
7 *1160:D *1079:B1 0.000121375
8 *1160:D *1102:A 0.000118185
9 *1160:D *1182:D 0.000170186
10 *1160:D *28:26 0.000760734
11 *1160:D *95:18 3.92756e-05
12 *1160:D *117:12 0.00196462
13 *1160:D *204:28 4.12303e-05
14 *1160:D *216:14 0
15 *1160:D *233:27 4.82319e-06
16 *1160:D *236:12 1.43717e-05
17 *1160:D *239:64 0.00153792
*RES
1 *1092:X *1160:D 26.1216 
*END

*D_NET *24 0.0135977
*CONN
*I *1161:D I *D sky130_fd_sc_hd__dfxtp_1
*I *1104:X O *D sky130_fd_sc_hd__buf_1
*CAP
1 *1161:D 0.00335194
2 *1104:X 0.00335194
3 *1161:D *970:A 0.000481017
4 *1161:D *985:A1 0.000193951
5 *1161:D *1003:A_N 5.1018e-05
6 *1161:D *1018:A 6.33103e-05
7 *1161:D *1037:B1 2.43474e-05
8 *1161:D *1081:A 3.97095e-06
9 *1161:D *1085:S 4.03791e-05
10 *1161:D *1117:A 2.53191e-06
11 *1161:D *1120:A0 9.35925e-05
12 *1161:D *1120:S 0.000229999
13 *1161:D *1131:A 2.1436e-05
14 *1161:D *1154:A 0.00278167
15 *1161:D *1161:CLK 0.000197633
16 *1161:D *1174:D 0.00025198
17 *1161:D *1183:CLK 9.53667e-05
18 *1161:D *84:83 0.000738433
19 *1161:D *120:76 4.25663e-05
20 *1161:D *198:24 7.36438e-05
21 *1161:D *205:22 0.000367954
22 *1161:D *210:28 6.03272e-05
23 *1161:D *234:16 0.000165886
24 *1161:D *236:12 0.000298472
25 *1161:D *252:54 0.000223561
26 *1157:D *1161:D 0.000390782
*RES
1 *1104:X *1161:D 43.4828 
*END

*D_NET *25 0.00447794
*CONN
*I *1162:D I *D sky130_fd_sc_hd__dfxtp_1
*I *1108:X O *D sky130_fd_sc_hd__clkbuf_1
*CAP
1 *1162:D 0.00065101
2 *1108:X 0.00065101
3 *1162:D *1007:A_N 4.66108e-05
4 *1162:D *1075:A1 0.000310274
5 *1162:D *1129:A 0.000336992
6 *1162:D *1140:A 1.43717e-05
7 *1162:D *1171:D 0.000799472
8 *1162:D *83:94 1.41165e-05
9 *1162:D *123:22 3.51254e-06
10 *1162:D *174:73 0.000257576
11 *1162:D *174:83 0.000333863
12 *1162:D *234:112 3.34884e-05
13 *1162:D *236:39 0.00102564
*RES
1 *1108:X *1162:D 25.8487 
*END

*D_NET *26 0.0199782
*CONN
*I *1163:D I *D sky130_fd_sc_hd__dfxtp_1
*I *1110:X O *D sky130_fd_sc_hd__buf_1
*CAP
1 *1163:D 0.00539672
2 *1110:X 0.00539672
3 *1163:D *938:A 0
4 *1163:D *939:A 0.000315275
5 *1163:D *956:A 0.000211779
6 *1163:D *957:B 9.16808e-05
7 *1163:D *988:A 0.000325522
8 *1163:D *1016:A2 0.00214205
9 *1163:D *1016:B2 0.000466111
10 *1163:D *1023:A0 0.000660116
11 *1163:D *1024:A 0
12 *1163:D *1076:A1 0.000246391
13 *1163:D *1110:A 5.58206e-05
14 *1163:D *1130:A 0.000327078
15 *1163:D *1130:C 0.000216615
16 *1163:D *1136:A 0.000133427
17 *1163:D *1194:A 0.000332231
18 *1163:D *48:38 0.0024751
19 *1163:D *96:28 8.02006e-05
20 *1163:D *134:10 0
21 *1163:D *138:34 0.000109786
22 *1163:D *150:48 0.000365861
23 *1163:D *184:20 0.000248698
24 *1163:D *205:24 5.38133e-05
25 *1163:D *233:47 0
26 *1163:D *260:40 0.000327195
*RES
1 *1110:X *1163:D 44.7832 
*END

*D_NET *27 0.00754997
*CONN
*I *1164:D I *D sky130_fd_sc_hd__dfxtp_1
*I *1112:X O *D sky130_fd_sc_hd__clkbuf_1
*CAP
1 *1164:D 0.00142333
2 *1112:X 0.00142333
3 *1164:D *1011:A1 0.000992388
4 *1164:D *1016:B2 0.000162627
5 *1164:D *1030:A 0.000435546
6 *1164:D *1060:A 9.67081e-06
7 *1164:D *1076:B1 0.00028133
8 *1164:D *1124:A0 0.00055354
9 *1164:D *1136:B 0.00014934
10 *1164:D *1164:CLK 0.000109559
11 *1164:D *1182:D 3.24868e-05
12 *1164:D *82:66 0.00016692
13 *1164:D *130:10 0.000169307
14 *1164:D *163:18 0.000527708
15 *1164:D *183:10 3.08314e-05
16 *1164:D *187:24 9.85301e-05
17 *1164:D *269:26 0.000983521
*RES
1 *1112:X *1164:D 37.0867 
*END

*D_NET *28 0.0273926
*CONN
*I *1165:D I *D sky130_fd_sc_hd__dfxtp_1
*I *1114:X O *D sky130_fd_sc_hd__buf_1
*CAP
1 *1165:D 0.00134174
2 *1114:X 0.00162628
3 *28:26 0.00625099
4 *28:24 0.00653553
5 *1165:D *1197:A 0
6 *1165:D *30:16 0.000157592
7 *1165:D *150:48 0.00200972
8 *1165:D *166:26 0
9 *1165:D *182:49 0.00219359
10 *1165:D *216:83 0.000129637
11 *1165:D *260:8 7.1067e-05
12 *28:24 *956:A 0
13 *28:24 *1019:B 0.000113142
14 *28:24 *1076:A1 8.33066e-06
15 *28:24 *1082:A 0.000599818
16 *28:24 *1101:B 1.92979e-05
17 *28:24 *1124:A1 0.000414313
18 *28:24 *1136:A 0
19 *28:24 *1175:D 6.90254e-05
20 *28:24 *1177:D 0.000168725
21 *28:24 *1179:CLK 0.000190904
22 *28:24 *109:40 9.29903e-05
23 *28:24 *139:18 7.98062e-05
24 *28:24 *215:12 0.00103023
25 *28:24 *249:33 0
26 *28:26 *239:64 0.00352913
27 seg[6] *1165:D 0
28 *1160:D *28:26 0.000760734
*RES
1 *1114:X *28:24 42.315 
2 *28:24 *28:26 61.86 
3 *28:26 *1165:D 45.9087 
*END

*D_NET *29 0.0080149
*CONN
*I *1166:D I *D sky130_fd_sc_hd__dfxtp_1
*I *1116:X O *D sky130_fd_sc_hd__clkbuf_1
*CAP
1 *1166:D 0.00155039
2 *1116:X 0.00155039
3 *1166:D *970:A 6.75156e-05
4 *1166:D *999:A2 5.47236e-05
5 *1166:D *1011:A2 0.00056703
6 *1166:D *1101:A_N 0.000559723
7 *1166:D *1116:A 0.000176286
8 *1166:D *1124:A0 6.75156e-05
9 *1166:D *1126:A1 0.000702312
10 *1166:D *1175:D 0.000229536
11 *1166:D *49:61 0.00036469
12 *1166:D *81:92 0.0011721
13 *1166:D *155:63 0.000200504
14 *1166:D *155:133 0.000107904
15 *1166:D *201:52 6.89243e-05
16 *1166:D *234:95 7.112e-05
17 *1166:D *250:64 0.000504236
*RES
1 *1116:X *1166:D 49.7188 
*END

*D_NET *30 0.0147548
*CONN
*I *1167:D I *D sky130_fd_sc_hd__dfxtp_1
*I *1121:X O *D sky130_fd_sc_hd__buf_1
*CAP
1 *1167:D 0.000933684
2 *1121:X 0.00147641
3 *30:16 0.0026793
4 *30:14 0.00322202
5 *1167:D *989:A 0.000114791
6 *1167:D *989:B_N 0.000126687
7 *1167:D *1092:A 0.00014516
8 *1167:D *126:28 0.00127913
9 *1167:D *128:12 2.31329e-05
10 *1167:D *166:26 0.000101386
11 *1167:D *206:18 7.08554e-05
12 *30:14 *997:A 1.08737e-05
13 *30:14 *1054:A 4.68514e-05
14 *30:14 *1055:A3 7.1624e-05
15 *30:14 *1089:A1 2.41307e-05
16 *30:14 *174:45 0.000122817
17 *30:14 *216:85 0
18 *30:16 *216:83 0.00414835
19 *1165:D *30:16 0.000157592
*RES
1 *1121:X *30:14 25.48 
2 *30:14 *30:16 50.085 
3 *30:16 *1167:D 24.915 
*END

*D_NET *31 0.00969777
*CONN
*I *1168:D I *D sky130_fd_sc_hd__dfxtp_1
*I *1123:X O *D sky130_fd_sc_hd__clkbuf_1
*CAP
1 *1168:D 0.00033574
2 *1123:X 0.001828
3 *31:28 0.00216374
4 *1168:D *1011:A2 0.000149695
5 *1168:D *1035:B1 3.13281e-05
6 *1168:D *1063:B 1.56428e-05
7 *1168:D *1074:A1 3.6355e-05
8 *1168:D *1074:A2 9.64638e-06
9 *1168:D *1128:A0 5.79855e-05
10 *1168:D *1168:CLK 0.000108379
11 *1168:D *49:61 4.32133e-05
12 *1168:D *201:52 0.000330387
13 *1168:D *210:49 0.000228228
14 *1168:D *230:61 0.000576166
15 *1168:D *230:86 1.93416e-05
16 *31:28 *978:A 0.000371497
17 *31:28 *1011:A2 4.15997e-05
18 *31:28 *1024:A 8.35157e-05
19 *31:28 *1024:B 0.000176508
20 *31:28 *1025:A1 0.000519895
21 *31:28 *1025:A2 4.88475e-05
22 *31:28 *1025:A3 3.82072e-05
23 *31:28 *1052:A1 6.23083e-05
24 *31:28 *1099:A 0.000104672
25 *31:28 *1113:S 1.70272e-05
26 *31:28 *1150:A1 4.92971e-05
27 *31:28 *1151:A 0.000433043
28 *31:28 *1180:D 3.85204e-05
29 *31:28 *1186:A 0.000121817
30 *31:28 *77:145 9.83921e-06
31 *31:28 *115:14 0.000623383
32 *31:28 *118:24 2.11768e-05
33 *31:28 *150:10 4.66474e-05
34 *31:28 *150:48 0.000176318
35 *31:28 *163:18 0.000121034
36 *31:28 *191:8 9.00151e-05
37 *31:28 *191:124 0.000283105
38 *31:28 *227:67 0.000125813
39 *31:28 *234:95 4.66742e-05
40 *31:28 *247:18 0
41 *31:28 *258:24 0.000113167
*RES
1 *1123:X *31:28 46.76 
2 *31:28 *1168:D 13.2937 
*END

*D_NET *32 0.0142394
*CONN
*I *1169:D I *D sky130_fd_sc_hd__dfxtp_1
*I *1125:X O *D sky130_fd_sc_hd__buf_1
*CAP
1 *1169:D 0.000115644
2 *1125:X 0.00313323
3 *32:60 0.00324887
4 *1169:D *1169:CLK 0.000200648
5 *32:60 *981:A2 0
6 *32:60 *987:A2 1.41563e-05
7 *32:60 *1000:B1 0.000318074
8 *32:60 *1023:S 0.00150785
9 *32:60 *1026:A0 9.48898e-05
10 *32:60 *1026:S 0.000208014
11 *32:60 *1081:A 5.49155e-05
12 *32:60 *1093:B1 0.00103636
13 *32:60 *1132:B 0
14 *32:60 *1140:A 0.000169144
15 *32:60 *1147:A 1.67235e-05
16 *32:60 *1173:D 0.000608485
17 *32:60 *1180:D 0
18 *32:60 *64:68 0.00102356
19 *32:60 *64:88 9.54817e-06
20 *32:60 *81:28 3.86814e-05
21 *32:60 *103:32 7.8614e-05
22 *32:60 *113:16 0.00115411
23 *32:60 *118:63 5.78621e-05
24 *32:60 *124:36 0
25 *32:60 *202:14 0.000118081
26 *32:60 *230:61 0
27 *32:60 *234:18 0.000125719
28 *32:60 *236:39 0.000219813
29 *32:60 *236:156 0.000416055
30 *32:60 *237:53 0.000119242
31 *32:60 *252:54 0
32 *32:60 *270:28 0.000151072
*RES
1 *1125:X *32:60 48.4064 
2 *32:60 *1169:D 5.505 
*END

*D_NET *33 0.00625002
*CONN
*I *1170:D I *D sky130_fd_sc_hd__dfxtp_1
*I *1127:X O *D sky130_fd_sc_hd__clkbuf_1
*CAP
1 *1170:D 0.00115459
2 *1127:X 0.00115459
3 *1170:D *938:A 0.000117028
4 *1170:D *975:A_N 1.67131e-05
5 *1170:D *975:B 0.000502221
6 *1170:D *1016:A1 0.000234753
7 *1170:D *1017:B 0.000287929
8 *1170:D *1027:A 0.000150824
9 *1170:D *1027:B 0.000149537
10 *1170:D *1093:B1 0.000451533
11 *1170:D *1127:A 0.00026784
12 *1170:D *1170:CLK 0.000109329
13 *1170:D *1178:D 0.000335436
14 *1170:D *77:145 0.000415952
15 *1170:D *95:53 0.000487508
16 *1170:D *96:28 0.00019468
17 *1170:D *126:22 4.6075e-05
18 *1170:D *155:34 0.000119762
19 *1170:D *236:100 5.37167e-05
*RES
1 *1127:X *1170:D 37.23 
*END

*D_NET *34 0.00634002
*CONN
*I *1171:D I *D sky130_fd_sc_hd__dfxtp_1
*I *1129:X O *D sky130_fd_sc_hd__clkbuf_1
*CAP
1 *1171:D 0.00156789
2 *1129:X 0.00156789
3 *1171:D *981:B1 0.000111871
4 *1171:D *990:A 0.000703946
5 *1171:D *1176:D 0.000471415
6 *1171:D *1180:D 0.000165132
7 *1171:D *1183:D 0
8 *1171:D *83:30 0.000132698
9 *1171:D *100:32 8.10123e-05
10 *1171:D *154:18 1.73493e-05
11 *1171:D *173:32 0.000135134
12 *1171:D *234:112 0.000180498
13 *1171:D *236:39 2.19788e-05
14 *1159:D *1171:D 0.000383737
15 *1162:D *1171:D 0.000799472
*RES
1 *1129:X *1171:D 24.4815 
*END

*D_NET *35 0.00271031
*CONN
*I *1172:D I *D sky130_fd_sc_hd__dfxtp_1
*I *1133:X O *D sky130_fd_sc_hd__clkbuf_1
*CAP
1 *1172:D 0.000703666
2 *1133:X 0.000703666
3 *1172:D *1016:A2 9.58678e-06
4 *1172:D *1080:B 0.000122202
5 *1172:D *1093:B1 0
6 *1172:D *1123:A 9.01185e-05
7 *1172:D *48:38 0
8 *1172:D *81:92 2.89558e-05
9 *1172:D *118:24 0
10 *1172:D *145:47 1.16854e-05
11 *1172:D *149:30 8.8958e-05
12 *1172:D *198:24 0.000785947
13 *1172:D *231:22 0.000165528
14 *1172:D *234:16 0
15 *1172:D *234:18 0
*RES
1 *1133:X *1172:D 20.2537 
*END

*D_NET *36 0.00464816
*CONN
*I *1173:D I *D sky130_fd_sc_hd__dfxtp_1
*I *1135:X O *D sky130_fd_sc_hd__clkbuf_1
*CAP
1 *1173:D 0.00121316
2 *1135:X 0.00121316
3 *1173:D *1017:B 3.51884e-05
4 *1173:D *1026:S 0.000174955
5 *1173:D *1039:A1 0.000162202
6 *1173:D *1076:A2 0.00015639
7 *1173:D *1086:A 9.83274e-05
8 *1173:D *1116:A 0.00020558
9 *1173:D *1135:A 0
10 *1173:D *96:28 0.000719001
11 *1173:D *171:40 6.17131e-05
12 *1173:D *205:24 0
13 *32:60 *1173:D 0.000608485
*RES
1 *1135:X *1173:D 28.3538 
*END

*D_NET *37 0.0100449
*CONN
*I *1174:D I *D sky130_fd_sc_hd__dfxtp_1
*I *1137:X O *D sky130_fd_sc_hd__buf_1
*CAP
1 *1174:D 0.00044278
2 *1137:X 0.00197919
3 *37:16 0.00242197
4 *1174:D *970:A 1.72743e-05
5 *1174:D *1000:B1 5.07765e-05
6 *1174:D *1034:A2 0.000124634
7 *1174:D *1101:A_N 1.79165e-05
8 *1174:D *1111:S 1.84465e-05
9 *1174:D *1112:A 0.000112943
10 *1174:D *1120:S 0.00017265
11 *1174:D *169:16 0.000109284
12 *1174:D *231:22 3.37735e-05
13 *1174:D *233:77 7.7152e-05
14 *37:16 *950:A 0.000290668
15 *37:16 *959:A3 2.17931e-05
16 *37:16 *994:A 0.000108705
17 *37:16 *1026:A0 0.000168997
18 *37:16 *1102:A 0.000159156
19 *37:16 *1120:A0 0.000198442
20 *37:16 *1120:S 8.23457e-05
21 *37:16 *1144:S 0.000600197
22 *37:16 *89:22 1.30972e-05
23 *37:16 *106:95 2.24238e-05
24 *37:16 *167:18 0.0012063
25 *37:16 *229:22 9.66475e-05
26 *37:16 *230:61 0.000111807
27 *37:16 *237:18 0.000192605
28 *1157:D *1174:D 0.000940929
29 *1161:D *1174:D 0.00025198
*RES
1 *1137:X *37:16 39.865 
2 *37:16 *1174:D 17.175 
*END

*D_NET *38 0.00265468
*CONN
*I *1175:D I *D sky130_fd_sc_hd__dfxtp_1
*I *1139:X O *D sky130_fd_sc_hd__clkbuf_1
*CAP
1 *1175:D 0.000583331
2 *1139:X 0.000583331
3 *1175:D *1019:B 7.03219e-05
4 *1175:D *1116:A 0.000413738
5 *1175:D *173:32 0.000181869
6 *1175:D *233:47 0.000523527
7 *1166:D *1175:D 0.000229536
8 *28:24 *1175:D 6.90254e-05
*RES
1 *1139:X *1175:D 18.8587 
*END

*D_NET *39 0.014033
*CONN
*I *1176:D I *D sky130_fd_sc_hd__dfxtp_1
*I *1141:X O *D sky130_fd_sc_hd__clkbuf_1
*CAP
1 *1176:D 0.0029553
2 *1141:X 0.0029553
3 *1176:D *944:B 3.92756e-05
4 *1176:D *958:B 7.85898e-05
5 *1176:D *973:A1 1.43717e-05
6 *1176:D *1005:C 1.50866e-05
7 *1176:D *1021:B1 0.00181895
8 *1176:D *1043:B 3.92756e-05
9 *1176:D *1093:B1 0.000103471
10 *1176:D *1094:A1 2.14639e-06
11 *1176:D *1153:A 0.000196717
12 *1176:D *50:18 8.87636e-05
13 *1176:D *88:54 0.000646019
14 *1176:D *106:37 0.000349925
15 *1176:D *106:57 0.00141867
16 *1176:D *108:49 0.00155183
17 *1176:D *119:46 0.000317879
18 *1176:D *173:32 0.00047425
19 *1176:D *174:29 8.70354e-05
20 *1176:D *207:18 0.000365594
21 *1176:D *252:54 1.92979e-05
22 *1176:D *263:50 2.38557e-05
23 *1171:D *1176:D 0.000471415
*RES
1 *1141:X *1176:D 22.9727 
*END

*D_NET *40 0.0132741
*CONN
*I *1177:D I *D sky130_fd_sc_hd__dfxtp_1
*I *1145:X O *D sky130_fd_sc_hd__clkbuf_1
*CAP
1 *1177:D 0.0034498
2 *1145:X 0.0034498
3 *1177:D *936:A 1.50866e-05
4 *1177:D *981:A2 0.00090037
5 *1177:D *987:A2 0.00020876
6 *1177:D *992:B1 1.88602e-05
7 *1177:D *1019:B 0.00016992
8 *1177:D *1025:A3 3.92756e-05
9 *1177:D *1025:B1 2.07171e-05
10 *1177:D *1076:A1 2.57269e-05
11 *1177:D *1080:B 0.00131918
12 *1177:D *1081:A 1.19407e-05
13 *1177:D *1082:A 8.23457e-05
14 *1177:D *1103:A1 0.000209935
15 *1177:D *1111:S 0.00052088
16 *1177:D *1120:S 9.16516e-05
17 *1177:D *1126:A0 0.00010873
18 *1177:D *1133:A 0.000160732
19 *1177:D *1147:A 1.7635e-05
20 *1177:D *1177:CLK 1.43717e-05
21 *1177:D *57:50 0.000613404
22 *1177:D *84:83 7.07002e-05
23 *1177:D *90:34 2.22315e-05
24 *1177:D *100:65 0.00134572
25 *1177:D *120:76 3.23045e-05
26 *1177:D *155:63 7.56872e-05
27 *1177:D *238:39 5.1068e-05
28 *1158:D *1177:D 5.85735e-05
29 *28:24 *1177:D 0.000168725
*RES
1 *1145:X *1177:D 19.1712 
*END

*D_NET *41 0.00593134
*CONN
*I *1178:D I *D sky130_fd_sc_hd__dfxtp_1
*I *1147:X O *D sky130_fd_sc_hd__clkbuf_1
*CAP
1 *1178:D 0.00126587
2 *1147:X 0.00126587
3 *1178:D *957:A 0.000385686
4 *1178:D *975:C 0.000163882
5 *1178:D *1009:A1 7.12448e-05
6 *1178:D *1066:A 0.000267296
7 *1178:D *1099:A 6.66283e-05
8 *1178:D *1117:D_N 5.74025e-05
9 *1178:D *1126:A0 7.96104e-06
10 *1178:D *1133:A 1.65441e-05
11 *1178:D *1146:A0 6.72143e-05
12 *1178:D *1177:CLK 0
13 *1178:D *56:26 0
14 *1178:D *78:16 0
15 *1178:D *95:73 0.000191335
16 *1178:D *157:30 3.69766e-05
17 *1178:D *191:79 0.000219986
18 *1178:D *198:28 4.39587e-05
19 *1178:D *234:163 0.000496082
20 *1178:D *263:50 0.000971965
21 *1170:D *1178:D 0.000335436
*RES
1 *1147:X *1178:D 34.4437 
*END

*D_NET *42 0.00988698
*CONN
*I *1179:D I *D sky130_fd_sc_hd__dfxtp_1
*I *1149:X O *D sky130_fd_sc_hd__buf_1
*CAP
1 *1179:D 0
2 *1149:X 0.000252656
3 *42:14 0.00127315
4 *42:8 0.0015258
5 *42:14 *275:DIODE 1.88656e-05
6 *42:14 *1021:B1 0.000127062
7 *42:14 *1051:S 0.000400946
8 *42:14 *1062:B1 1.88602e-05
9 *42:14 *1091:A0 0.00159745
10 *42:14 *1120:A0 9.37846e-05
11 *42:14 *1156:A 0.00122419
12 *42:14 *1179:CLK 1.43717e-05
13 *42:14 *215:12 0
14 *42:14 *216:20 0.000142364
15 *42:14 *221:43 0.000310126
16 *42:14 *238:12 0.00179077
17 *19:16 *42:14 0.00109658
*RES
1 *1149:X *42:8 6.81 
2 *42:8 *42:14 49.1637 
3 *42:14 *1179:D 1.6 
*END

*D_NET *43 0.0119726
*CONN
*I *1180:D I *D sky130_fd_sc_hd__dfxtp_1
*I *1151:X O *D sky130_fd_sc_hd__buf_1
*CAP
1 *1180:D 0.00241144
2 *1151:X 0.00241144
3 *1180:D *948:A 0.000101007
4 *1180:D *959:A3 0.00046165
5 *1180:D *981:B1 0.000149523
6 *1180:D *990:A 0.000330306
7 *1180:D *1025:A3 2.6451e-05
8 *1180:D *1035:A1_N 0.000242465
9 *1180:D *1085:S 0.000463587
10 *1180:D *1094:A1 8.35106e-05
11 *1180:D *1094:A2 8.35068e-05
12 *1180:D *1102:A 0.000418057
13 *1180:D *1116:A 0.00027811
14 *1180:D *1132:A 0.000686842
15 *1180:D *1140:A 0.000341401
16 *1180:D *1142:C 0.000314076
17 *1180:D *57:50 0.000225103
18 *1180:D *100:32 0.000125403
19 *1180:D *100:65 0.000229729
20 *1180:D *129:28 5.06382e-06
21 *1180:D *155:63 0.000953317
22 *1180:D *236:156 0
23 *1180:D *252:54 3.80582e-05
24 *1180:D *258:24 3.85204e-05
25 *1180:D *270:28 0.00135042
26 *1171:D *1180:D 0.000165132
27 *31:28 *1180:D 3.85204e-05
28 *32:60 *1180:D 0
*RES
1 *1151:X *1180:D 49.6527 
*END

*D_NET *44 0.0142256
*CONN
*I *1181:D I *D sky130_fd_sc_hd__dfxtp_1
*I *1153:X O *D sky130_fd_sc_hd__buf_1
*CAP
1 *1181:D 0.00316262
2 *1153:X 0.00316262
3 *1181:D *939:A 5.44718e-05
4 *1181:D *956:A 4.73375e-06
5 *1181:D *1000:B1 0.000300421
6 *1181:D *1023:S 0.000219572
7 *1181:D *1076:A3 7.62584e-05
8 *1181:D *1093:B1 0.0008918
9 *1181:D *1111:A0 0.000418229
10 *1181:D *1124:A1 4.24632e-05
11 *1181:D *1127:A 4.82863e-05
12 *1181:D *1147:A 8.26543e-05
13 *1181:D *1179:CLK 8.53113e-06
14 *1181:D *1194:A 0.00443581
15 *1181:D *64:68 2.95793e-05
16 *1181:D *85:20 0.000332042
17 *1181:D *127:51 1.7635e-05
18 *1181:D *233:53 3.16237e-05
19 *1181:D *236:73 2.87421e-05
20 *1181:D *250:29 2.50284e-05
21 *1181:D *250:64 0.000534379
22 *1181:D *259:14 0.000238974
23 *1181:D *269:26 7.90846e-05
*RES
1 *1153:X *1181:D 24.9477 
*END

*D_NET *45 0.0150448
*CONN
*I *1182:D I *D sky130_fd_sc_hd__dfrtp_2
*I *947:X O *D sky130_fd_sc_hd__xor2_1
*CAP
1 *1182:D 0.00405139
2 *947:X 0.00405139
3 *1182:D *938:A 0.00038196
4 *1182:D *981:A3 2.41716e-05
5 *1182:D *987:B1 0.000121366
6 *1182:D *992:B1 0.000111869
7 *1182:D *1030:A 0
8 *1182:D *1059:A 0.000164507
9 *1182:D *1065:A 0.00288576
10 *1182:D *1068:A 6.98771e-05
11 *1182:D *1080:B 1.57264e-05
12 *1182:D *1092:A 9.00083e-05
13 *1182:D *1118:A 1.6162e-05
14 *1182:D *1136:B 0.000277975
15 *1182:D *1182:CLK 2.01504e-05
16 *1182:D *145:47 5.24934e-05
17 *1182:D *166:26 0.000406757
18 *1182:D *169:16 5.95199e-05
19 *1182:D *187:24 0.000354592
20 *1182:D *191:54 0.000890515
21 *1182:D *215:14 0.000368839
22 *1182:D *234:65 0.000427137
23 *1160:D *1182:D 0.000170186
24 *1164:D *1182:D 3.24868e-05
*RES
1 *947:X *1182:D 28.9602 
*END

*D_NET *46 0.0163358
*CONN
*I *1183:D I *D sky130_fd_sc_hd__dfrtp_4
*I *946:Y O *D sky130_fd_sc_hd__nor2_1
*CAP
1 *1183:D 0.00427962
2 *946:Y 0.00427962
3 *1183:D *1002:A0 0.000116048
4 *1183:D *1002:S 0.00020599
5 *1183:D *1062:B1 0.0024157
6 *1183:D *1079:A2 7.48593e-05
7 *1183:D *1079:B1 8.06306e-05
8 *1183:D *1089:A0 0
9 *1183:D *1098:A1 0.000177347
10 *1183:D *1132:B 0
11 *1183:D *1183:CLK 0.000213017
12 *1183:D *81:28 1.74629e-05
13 *1183:D *83:167 0.00011774
14 *1183:D *98:42 0.000857529
15 *1183:D *100:32 0
16 *1183:D *110:53 0
17 *1183:D *121:18 4.8843e-05
18 *1183:D *128:38 0.000149391
19 *1183:D *167:38 0.000125243
20 *1183:D *185:63 1.88602e-05
21 *1183:D *191:128 0.00113886
22 *1183:D *207:18 0.00133977
23 *1183:D *236:156 0.000504282
24 *1183:D *252:54 5.61091e-05
25 *1158:D *1183:D 7.67557e-05
26 *1171:D *1183:D 0
27 *1183:RESET_B *1183:D 4.20634e-05
*RES
1 *946:Y *1183:D 46.0966 
*END

*D_NET *47 0.00055117
*CONN
*I *1184:D I *D sky130_fd_sc_hd__dfrtp_1
*I *944:X O *D sky130_fd_sc_hd__xor2_1
*CAP
1 *1184:D 0.00011638
2 *944:X 0.00011638
3 *1184:D *944:A 9.83446e-05
4 *1184:D *959:A3 0.000149914
5 *1184:D *985:C1 2.60003e-05
6 *1159:D *1184:D 4.41506e-05
*RES
1 *944:X *1184:D 9.885 
*END

*D_NET *48 0.0163807
*CONN
*I *1106:A I *D sky130_fd_sc_hd__buf_2
*I *272:DIODE I *D sky130_fd_sc_hd__diode_2
*I *1105:X O *D sky130_fd_sc_hd__and3_1
*CAP
1 *1106:A 0
2 *272:DIODE 3.72466e-05
3 *1105:X 0.00353548
4 *48:38 0.00357273
5 *272:DIODE *938:A 6.52411e-05
6 *272:DIODE *1170:CLK 0.000119247
7 *48:38 *957:B 0.000306651
8 *48:38 *967:A 5.02126e-06
9 *48:38 *970:B 0.000245206
10 *48:38 *992:A1 0.00138137
11 *48:38 *992:B1 2.22315e-05
12 *48:38 *1016:A2 0.00119332
13 *48:38 *1043:B 0.000548463
14 *48:38 *1050:S 1.88602e-05
15 *48:38 *1080:B 0.000141311
16 *48:38 *1093:B1 3.23683e-05
17 *48:38 *1111:S 1.84465e-05
18 *48:38 *1153:A 7.24707e-05
19 *48:38 *1194:A 0.000454715
20 *48:38 *57:36 0.000357107
21 *48:38 *85:20 7.96104e-06
22 *48:38 *95:53 0.000565344
23 *48:38 *118:24 0.00077413
24 *48:38 *150:48 0.000173591
25 *48:38 *185:20 4.12831e-05
26 *48:38 *234:18 0.000125706
27 *48:38 *239:93 2.11965e-05
28 seg[2] *48:38 6.89024e-05
29 *1163:D *48:38 0.0024751
30 *1172:D *48:38 0
*RES
1 *1105:X *48:38 20.8587 
2 *48:38 *272:DIODE 2.74 
3 *48:38 *1106:A 1.6 
*END

*D_NET *49 0.0231232
*CONN
*I *1113:S I *D sky130_fd_sc_hd__mux2_1
*I *1109:S I *D sky130_fd_sc_hd__mux2_1
*I *1107:S I *D sky130_fd_sc_hd__mux2_1
*I *1115:S I *D sky130_fd_sc_hd__mux2_1
*I *1111:S I *D sky130_fd_sc_hd__mux2_1
*I *1106:X O *D sky130_fd_sc_hd__buf_2
*CAP
1 *1113:S 0.000972027
2 *1109:S 0
3 *1107:S 0.00128798
4 *1115:S 0
5 *1111:S 0.000944171
6 *1106:X 0
7 *49:61 0.00223783
8 *49:45 0.0012126
9 *49:39 0.00202508
10 *49:4 0.00173448
11 *1107:S *984:B 1.7635e-05
12 *1107:S *1014:B 4.46859e-05
13 *1107:S *1025:A1 0.000252693
14 *1107:S *1054:A 3.63253e-05
15 *1107:S *1107:A0 6.3081e-05
16 *1107:S *1115:A0 0.000249567
17 *1107:S *1148:S 0.00023135
18 *1107:S *1149:A 0.000571412
19 *1107:S *1152:A0 0.000447046
20 *1107:S *1152:A1 2.82968e-05
21 *1107:S *77:49 0
22 *1107:S *88:54 0.00017997
23 *1107:S *93:37 4.65941e-05
24 *1107:S *98:42 2.77704e-05
25 *1107:S *146:32 5.92481e-05
26 *1107:S *167:18 9.82856e-06
27 *1107:S *174:45 0.000321777
28 *1107:S *174:57 0.000339361
29 *1107:S *202:10 8.7152e-06
30 *1111:S *938:A 0.000121659
31 *1111:S *981:A2 8.70354e-05
32 *1111:S *999:A2 0.00022792
33 *1111:S *1081:A 5.39426e-05
34 *1111:S *1111:A0 0.000154986
35 *1111:S *1111:A1 2.10152e-05
36 *1111:S *1120:S 1.7635e-05
37 *1111:S *84:89 0.000376686
38 *1111:S *85:20 8.58233e-05
39 *1111:S *120:26 0.000353822
40 *1111:S *134:10 0.000153816
41 *1111:S *155:133 0
42 *1111:S *169:35 0
43 *1111:S *250:64 0.000190004
44 *1113:S *955:A_N 5.36903e-05
45 *1113:S *955:B 0.000201508
46 *1113:S *978:A 0
47 *1113:S *1011:B1 0.000157736
48 *1113:S *1024:A 1.42674e-05
49 *1113:S *1024:B 1.79098e-05
50 *1113:S *53:16 2.30292e-05
51 *1113:S *82:54 1.4041e-05
52 *1113:S *82:66 0.000128476
53 *1113:S *150:14 0.000121796
54 *1113:S *191:16 1.07285e-05
55 *1113:S *191:34 8.01049e-05
56 *49:39 *938:A 4.66108e-05
57 *49:39 *1024:A 0.000104371
58 *49:39 *1028:B1 4.77807e-05
59 *49:39 *1093:B1 0.000455741
60 *49:39 *82:79 2.7703e-05
61 *49:39 *85:20 0.000251878
62 *49:39 *150:14 0.00130674
63 *49:39 *155:26 0.000168423
64 *49:45 *1011:A2 0.000604904
65 *49:45 *155:34 0.000172985
66 *49:45 *269:26 0.000221908
67 *49:61 *965:A 2.01504e-05
68 *49:61 *1011:A2 4.77757e-05
69 *49:61 *1025:A1 9.48791e-05
70 *49:61 *1027:A 2.56618e-05
71 *49:61 *1128:A0 5.63183e-05
72 *49:61 *84:83 0.000552731
73 *49:61 *103:32 0.000120407
74 *49:61 *120:76 1.87945e-05
75 *49:61 *138:32 8.23457e-05
76 *49:61 *155:34 6.78562e-05
77 *49:61 *155:63 0.000445596
78 *49:61 *174:83 6.95037e-05
79 *49:61 *191:124 0.000128977
80 *49:61 *201:33 3.98656e-05
81 *49:61 *201:52 0.000312558
82 *49:61 *202:10 0.000147611
83 *49:61 *230:86 0.000207939
84 *49:61 *231:22 4.41506e-05
85 *49:61 *258:24 0.000231234
86 *1166:D *49:61 0.00036469
87 *1168:D *49:61 4.32133e-05
88 *1174:D *1111:S 1.84465e-05
89 *1177:D *1111:S 0.00052088
90 *31:28 *1113:S 1.70272e-05
91 *48:38 *1111:S 1.84465e-05
*RES
1 *1106:X *49:4 1.6 
2 *49:4 *1111:S 22.1987 
3 *49:4 *49:39 22.225 
4 *49:39 *49:45 11.5 
5 *49:45 *49:61 28.995 
6 *49:61 *1115:S 3.6 
7 *49:61 *1107:S 32.025 
8 *49:45 *1109:S 1.6 
9 *49:39 *1113:S 20.03 
*END

*D_NET *50 0.0097239
*CONN
*I *1108:A I *D sky130_fd_sc_hd__clkbuf_1
*I *1107:X O *D sky130_fd_sc_hd__mux2_1
*CAP
1 *1108:A 0
2 *1107:X 0.00201256
3 *50:18 0.00201256
4 *50:18 *1005:C 4.43571e-05
5 *50:18 *1054:A 0.00107399
6 *50:18 *1072:A 2.61183e-06
7 *50:18 *1129:A 0.00107361
8 *50:18 *1146:S 0.000308828
9 *50:18 *1147:A 0.000328169
10 *50:18 *1192:A 0.000991831
11 *50:18 *83:94 7.13257e-05
12 *50:18 *116:23 0.000572007
13 *50:18 *121:18 0.000118511
14 *50:18 *174:29 0.000196905
15 *50:18 *174:45 2.93447e-05
16 *50:18 *197:28 0.000175278
17 *50:18 *218:20 1.56651e-05
18 *50:18 *263:50 0.00060759
19 *1176:D *50:18 8.87636e-05
*RES
1 *1107:X *50:18 49.1 
2 *50:18 *1108:A 1.6 
*END

*D_NET *51 0.00647958
*CONN
*I *1110:A I *D sky130_fd_sc_hd__buf_1
*I *1109:X O *D sky130_fd_sc_hd__mux2_1
*CAP
1 *1110:A 0.00143348
2 *1109:X 0.00143348
3 *1110:A *976:A1 0.00114075
4 *1110:A *988:C 0.000153178
5 *1110:A *1010:A_N 0.000260695
6 *1110:A *1024:B 0.000289978
7 *1110:A *1099:A 0.00115454
8 *1110:A *231:22 0.000557657
9 *1163:D *1110:A 5.58206e-05
*RES
1 *1109:X *1110:A 33.905 
*END

*D_NET *52 0.000520026
*CONN
*I *1112:A I *D sky130_fd_sc_hd__clkbuf_1
*I *1111:X O *D sky130_fd_sc_hd__mux2_1
*CAP
1 *1112:A 9.77863e-05
2 *1111:X 9.77863e-05
3 *1112:A *970:A 3.04518e-05
4 *1112:A *1116:A 0.000122097
5 *1112:A *1120:S 5.89623e-05
6 *1174:D *1112:A 0.000112943
*RES
1 *1111:X *1112:A 9.72 
*END

*D_NET *53 0.00962887
*CONN
*I *1114:A I *D sky130_fd_sc_hd__buf_1
*I *1113:X O *D sky130_fd_sc_hd__mux2_1
*CAP
1 *1114:A 0.000157009
2 *1113:X 0.00141433
3 *53:16 0.00157134
4 *1114:A *1082:A 0.000302118
5 *1114:A *1154:A 0.000192508
6 *1114:A *174:124 6.03315e-05
7 *53:16 *939:A 1.88656e-05
8 *53:16 *947:B 0
9 *53:16 *955:B 0.000237243
10 *53:16 *956:A 0.00213639
11 *53:16 *981:A2 0
12 *53:16 *1011:A2 8.8266e-05
13 *53:16 *1028:C1 0.000149341
14 *53:16 *1030:A 0.000714697
15 *53:16 *1044:A 0.000273878
16 *53:16 *1044:B 0.000143089
17 *53:16 *1081:A 0.000262188
18 *53:16 *1124:S 2.43442e-05
19 *53:16 *1139:A 4.57228e-05
20 *53:16 *1170:CLK 0.000308391
21 *53:16 *84:89 0
22 *53:16 *120:26 2.14213e-05
23 *53:16 *155:22 8.99203e-05
24 *53:16 *169:35 0.000275724
25 *53:16 *183:10 0.000137693
26 *53:16 *191:34 0.000899051
27 *53:16 *239:64 8.19796e-05
28 *1113:S *53:16 2.30292e-05
*RES
1 *1113:X *53:16 48.66 
2 *53:16 *1114:A 7.5 
*END

*D_NET *54 0.00886331
*CONN
*I *1116:A I *D sky130_fd_sc_hd__clkbuf_1
*I *1115:X O *D sky130_fd_sc_hd__mux2_1
*CAP
1 *1116:A 0.00211464
2 *1115:X 0.00211464
3 *1116:A *987:B1 0.000194807
4 *1116:A *1026:S 0.000783555
5 *1116:A *1077:A1 0.000130352
6 *1116:A *1086:A 0.000498563
7 *1116:A *81:92 0.000741723
8 *1116:A *100:32 0.000121409
9 *1116:A *129:28 6.75834e-05
10 *1116:A *169:35 2.39856e-05
11 *1116:A *191:128 0.00029854
12 *1116:A *210:49 0.000320818
13 *1116:A *233:47 8.35068e-05
14 *1116:A *250:64 0.000118353
15 *1116:A *252:54 5.50289e-05
16 *1112:A *1116:A 0.000122097
17 *1166:D *1116:A 0.000176286
18 *1173:D *1116:A 0.00020558
19 *1175:D *1116:A 0.000413738
20 *1180:D *1116:A 0.00027811
*RES
1 *1115:X *1116:A 46.995 
*END

*D_NET *55 0.0047459
*CONN
*I *1118:A I *D sky130_fd_sc_hd__clkbuf_1
*I *1117:X O *D sky130_fd_sc_hd__or4b_1
*CAP
1 *1118:A 0.00119417
2 *1117:X 0.00119417
3 *1118:A *937:A 2.33002e-05
4 *1118:A *957:A 0
5 *1118:A *957:B 5.20961e-05
6 *1118:A *975:C 0.000806344
7 *1118:A *987:B1 5.66369e-05
8 *1118:A *1016:A2 1.66925e-05
9 *1118:A *1037:B1 1.97442e-05
10 *1118:A *1088:A 2.39146e-05
11 *1118:A *1104:A 0
12 *1118:A *1117:A 9.387e-06
13 *1118:A *56:26 0.000108513
14 *1118:A *82:30 4.66108e-05
15 *1118:A *82:54 0.000108126
16 *1118:A *126:22 0.000680361
17 *1118:A *191:16 0.000120279
18 *1118:A *218:20 0.000117765
19 *1118:A *234:18 0
20 *1118:A *234:65 3.57339e-05
21 *1118:A *236:100 0
22 *1118:A *252:20 0.000115886
23 *1182:D *1118:A 1.6162e-05
*RES
1 *1117:X *1118:A 31.545 
*END

*D_NET *56 0.0100751
*CONN
*I *1119:A I *D sky130_fd_sc_hd__buf_2
*I *1118:X O *D sky130_fd_sc_hd__clkbuf_1
*CAP
1 *1119:A 0
2 *1118:X 0.00232119
3 *56:26 0.00232119
4 *56:26 *937:A 0
5 *56:26 *957:A 0
6 *56:26 *976:A1 0.000138536
7 *56:26 *976:C1 8.94787e-05
8 *56:26 *986:B1 8.94959e-05
9 *56:26 *1003:A_N 1.92979e-05
10 *56:26 *1031:B 0.000311596
11 *56:26 *1041:A1 1.32455e-05
12 *56:26 *1056:B1 6.14728e-05
13 *56:26 *1062:A2 2.10691e-05
14 *56:26 *1092:A 0.00010385
15 *56:26 *1093:B1 5.56205e-06
16 *56:26 *1100:A_N 8.40587e-05
17 *56:26 *1127:A 0.000589451
18 *56:26 *1177:CLK 0.000147019
19 *56:26 *1196:A 0.000399497
20 *56:26 *77:117 1.13272e-05
21 *56:26 *78:16 7.74592e-05
22 *56:26 *78:51 0.000168401
23 *56:26 *82:135 4.07391e-05
24 *56:26 *82:154 3.12855e-05
25 *56:26 *112:30 0.000623742
26 *56:26 *126:28 0.000101666
27 *56:26 *149:30 9.66632e-05
28 *56:26 *178:71 0.000118081
29 *56:26 *191:16 4.66108e-05
30 *56:26 *196:31 9.35987e-05
31 *56:26 *201:80 0.000956243
32 *56:26 *221:12 0.000266984
33 *56:26 *239:76 0.000613417
34 *56:26 *263:50 4.36573e-06
35 *1118:A *56:26 0.000108513
36 *1178:D *56:26 0
*RES
1 *1118:X *56:26 49.3499 
2 *56:26 *1119:A 1.6 
*END

*D_NET *57 0.0313167
*CONN
*I *1128:S I *D sky130_fd_sc_hd__mux2_1
*I *1126:S I *D sky130_fd_sc_hd__mux2_1
*I *1122:S I *D sky130_fd_sc_hd__mux2_1
*I *1124:S I *D sky130_fd_sc_hd__mux2_1
*I *1120:S I *D sky130_fd_sc_hd__mux2_1
*I *1119:X O *D sky130_fd_sc_hd__buf_2
*CAP
1 *1128:S 0.00014725
2 *1126:S 3.67679e-05
3 *1122:S 0
4 *1124:S 0.000707436
5 *1120:S 0.00209342
6 *1119:X 0.000738125
7 *57:87 0.00110064
8 *57:50 0.00439594
9 *57:36 0.00293588
10 *57:22 0.00187517
11 *1120:S *970:A 0.000638478
12 *1120:S *981:A2 0.00014901
13 *1120:S *995:A 0.000634067
14 *1120:S *1001:A 0.000736818
15 *1120:S *1034:A2 3.67742e-05
16 *1120:S *1041:A1 3.99745e-05
17 *1120:S *1051:A0 0.000871431
18 *1120:S *1051:S 0.000474894
19 *1120:S *1090:A 0.000410184
20 *1120:S *1103:A1 0.000147686
21 *1120:S *1120:A1 6.71882e-05
22 *1120:S *229:22 0.000500045
23 *1124:S *938:A 0.000156762
24 *1124:S *1016:A1 0.000138455
25 *1124:S *1016:B1 0.000296162
26 *1124:S *1019:A 0.00030445
27 *1124:S *1092:A 0.000302119
28 *1124:S *1124:A0 3.85641e-05
29 *1124:S *84:89 0.000141978
30 *1124:S *155:22 0.000923949
31 *1128:S *1129:A 8.6639e-05
32 *1128:S *1192:A 0.000377128
33 *57:22 *1047:A 1.08758e-05
34 *57:22 *1056:B1 0.000267855
35 *57:22 *1093:B1 4.7003e-05
36 *57:22 *1128:A1 0.000247537
37 *57:22 *1176:CLK 0
38 *57:22 *1193:A 8.19825e-05
39 *57:22 *108:49 0
40 *57:22 *108:65 0.000281409
41 *57:22 *112:18 0.000302103
42 *57:22 *178:71 5.40596e-05
43 *57:22 *223:30 2.29406e-05
44 *57:36 *945:A1 2.15449e-05
45 *57:36 *992:B1 7.8632e-06
46 *57:36 *1037:B1 4.98794e-05
47 *57:36 *1056:B1 0.000360709
48 *57:36 *1080:B 1.17267e-05
49 *57:36 *1117:D_N 5.70925e-06
50 *57:36 *77:121 5.78448e-05
51 *57:36 *78:16 0.000118081
52 *57:36 *82:18 1.7635e-05
53 *57:36 *82:135 0.000156754
54 *57:36 *90:34 3.43556e-05
55 *57:36 *100:65 0.000620474
56 *57:36 *108:65 0.000569067
57 *57:36 *127:51 3.89822e-05
58 *57:36 *235:60 3.8698e-05
59 *57:36 *239:76 5.89097e-05
60 *57:36 *239:93 7.92354e-05
61 *57:50 *981:A2 0.000328934
62 *57:50 *987:A2 0.000277415
63 *57:50 *992:B1 1.33757e-05
64 *57:50 *995:A 0.00104982
65 *57:50 *1025:A3 3.92756e-05
66 *57:50 *1037:B1 2.72318e-05
67 *57:50 *81:92 8.73147e-06
68 *57:50 *82:54 0.000164666
69 *57:50 *100:65 0.000446957
70 *57:50 *145:47 0.000185573
71 *57:50 *198:24 0
72 *57:87 *1130:C 6.51539e-05
73 *57:87 *82:79 0.000486777
74 *57:87 *155:26 0.000310564
75 *57:87 *155:133 0.000525183
76 *57:87 *255:20 0.000192779
77 *57:87 *255:83 1.0145e-05
78 *1111:S *1120:S 1.7635e-05
79 *1112:A *1120:S 5.89623e-05
80 *1159:D *1120:S 2.20544e-05
81 *1161:D *1120:S 0.000229999
82 *1174:D *1120:S 0.00017265
83 *1177:D *1120:S 9.16516e-05
84 *1177:D *57:50 0.000613404
85 *1180:D *57:50 0.000225103
86 *19:16 *1120:S 0.000222189
87 *37:16 *1120:S 8.23457e-05
88 *48:38 *57:36 0.000357107
89 *53:16 *1124:S 2.43442e-05
*RES
1 *1119:X *57:22 20.8 
2 *57:22 *57:36 15.0449 
3 *57:36 *57:50 12.6334 
4 *57:50 *1120:S 46.9597 
5 *57:50 *57:87 12.9325 
6 *57:87 *1124:S 23.225 
7 *57:87 *1122:S 1.6 
8 *57:36 *1126:S 2.215 
9 *57:22 *1128:S 7.155 
*END

*D_NET *58 0.0128557
*CONN
*I *1121:A I *D sky130_fd_sc_hd__buf_1
*I *1120:X O *D sky130_fd_sc_hd__mux2_1
*CAP
1 *1121:A 0.000328949
2 *1120:X 0.00292851
3 *58:28 0.00325746
4 *1121:A *1087:A1 0.000787504
5 *1121:A *65:14 0.000170446
6 *1121:A *235:60 0.000411239
7 *58:28 *950:B 0.000956171
8 *58:28 *954:A 0
9 *58:28 *981:A1 0.000443452
10 *58:28 *998:A 0.000334396
11 *58:28 *1008:A2 8.62298e-05
12 *58:28 *1061:A2 0.000115422
13 *58:28 *1120:A1 4.54906e-05
14 *58:28 *1180:CLK 0.000238487
15 *58:28 *83:167 0
16 *58:28 *106:65 0.000173858
17 *58:28 *106:80 0.00023979
18 *58:28 *185:63 0.00158353
19 *58:28 *208:81 0.000529502
20 *58:28 *252:56 4.06026e-05
21 *58:28 *271:43 0.000184652
*RES
1 *1120:X *58:28 45.1552 
2 *58:28 *1121:A 11.71 
*END

*D_NET *59 0.00517267
*CONN
*I *1123:A I *D sky130_fd_sc_hd__clkbuf_1
*I *1122:X O *D sky130_fd_sc_hd__mux2_1
*CAP
1 *1123:A 0.00166954
2 *1122:X 0.00166954
3 *1123:A *937:A 0.000109207
4 *1123:A *957:A 0.000101097
5 *1123:A *957:B 8.4841e-05
6 *1123:A *1046:B 0.000421149
7 *1123:A *1122:A1 5.16479e-05
8 *1123:A *1125:A 5.40354e-06
9 *1123:A *60:14 6.17517e-07
10 *1123:A *126:22 0.000109207
11 *1123:A *149:30 0.000392306
12 *1123:A *157:30 0.000363322
13 *1123:A *191:34 5.69036e-05
14 *1123:A *247:18 4.77807e-05
15 *1172:D *1123:A 9.01185e-05
*RES
1 *1122:X *1123:A 33.315 
*END

*D_NET *60 0.0116213
*CONN
*I *1125:A I *D sky130_fd_sc_hd__buf_1
*I *1124:X O *D sky130_fd_sc_hd__mux2_1
*CAP
1 *1125:A 0.000769845
2 *1124:X 0.00274563
3 *60:14 0.00351548
4 *1125:A *957:A 0.000396373
5 *1125:A *976:A1 0.000492066
6 *1125:A *1006:A2 0.000114996
7 *1125:A *1059:A 0
8 *1125:A *1147:A 2.85364e-05
9 *1125:A *96:28 4.66108e-05
10 *1125:A *118:63 5.18318e-05
11 *1125:A *127:51 0
12 *60:14 *1076:B1 7.1624e-05
13 *60:14 *1092:A 0.00150929
14 *60:14 *1122:A1 1.43622e-05
15 *60:14 *149:30 0.00018794
16 *60:14 *157:30 0.00167069
17 *1123:A *1125:A 5.40354e-06
18 *1123:A *60:14 6.17517e-07
*RES
1 *1124:X *60:14 41.9525 
2 *60:14 *1125:A 19.9025 
*END

*D_NET *61 0.00252056
*CONN
*I *1127:A I *D sky130_fd_sc_hd__clkbuf_1
*I *1126:X O *D sky130_fd_sc_hd__mux2_1
*CAP
1 *1127:A 0.000386978
2 *1126:X 0.000386978
3 *1127:A *975:B 0.000154977
4 *1127:A *1147:A 9.66021e-05
5 *1127:A *239:76 0.000589451
6 *1170:D *1127:A 0.00026784
7 *1181:D *1127:A 4.82863e-05
8 *56:26 *1127:A 0.000589451
*RES
1 *1126:X *1127:A 18.27 
*END

*D_NET *62 0.00510446
*CONN
*I *1129:A I *D sky130_fd_sc_hd__clkbuf_1
*I *1128:X O *D sky130_fd_sc_hd__mux2_1
*CAP
1 *1129:A 0.00157593
2 *1128:X 0.00157593
3 *1129:A *972:A1 8.35106e-05
4 *1129:A *1039:B1 6.81984e-05
5 *1129:A *1192:A 0.000138498
6 *1129:A *83:94 1.58398e-05
7 *1129:A *146:32 6.69679e-05
8 *1129:A *236:39 8.23457e-05
9 *1128:S *1129:A 8.6639e-05
10 *1162:D *1129:A 0.000336992
11 *50:18 *1129:A 0.00107361
*RES
1 *1128:X *1129:A 27.6 
*END

*D_NET *63 0.01575
*CONN
*I *1131:A I *D sky130_fd_sc_hd__clkbuf_2
*I *1130:Y O *D sky130_fd_sc_hd__nand3_1
*CAP
1 *1131:A 0.00413738
2 *1130:Y 0.00413738
3 *1131:A *998:A 0.00021846
4 *1131:A *1009:A2 4.12356e-05
5 *1131:A *1016:A2 0.000190428
6 *1131:A *1023:A0 0.000100193
7 *1131:A *1032:B1 0.000427955
8 *1131:A *1041:A0 0.00265858
9 *1131:A *1091:A0 3.92756e-05
10 *1131:A *1128:A0 0.000121643
11 *1131:A *1128:A1 4.77757e-05
12 *1131:A *1154:A 0.00232654
13 *1131:A *1192:A 0.00011831
14 *1131:A *64:12 5.21123e-05
15 *1131:A *64:32 6.18711e-05
16 *1131:A *89:22 4.41639e-05
17 *1131:A *116:82 0.000319875
18 *1131:A *120:76 0.000150934
19 *1131:A *155:63 0.000150934
20 *1131:A *178:18 7.53186e-05
21 *1131:A *206:34 0.00014026
22 *1131:A *234:16 0.000167932
23 *1131:A *249:33 0
24 *1161:D *1131:A 2.1436e-05
*RES
1 *1130:Y *1131:A 25.0524 
*END

*D_NET *64 0.0342952
*CONN
*I *1134:B I *D sky130_fd_sc_hd__and2_1
*I *1138:B I *D sky130_fd_sc_hd__and2_1
*I *1136:B I *D sky130_fd_sc_hd__and2_1
*I *1132:B I *D sky130_fd_sc_hd__and2_1
*I *1140:B I *D sky130_fd_sc_hd__and2_1
*I *1131:X O *D sky130_fd_sc_hd__clkbuf_2
*CAP
1 *1134:B 5.75594e-06
2 *1138:B 3.68518e-05
3 *1136:B 0.000429767
4 *1132:B 0.0013771
5 *1140:B 3.48421e-05
6 *1131:X 0.000617054
7 *64:88 0.00194731
8 *64:68 0.00314461
9 *64:32 0.00414132
10 *64:12 0.0050046
11 *1132:B *950:B 0.000101703
12 *1132:B *954:A 7.87215e-06
13 *1132:B *954:B_N 7.16988e-05
14 *1132:B *963:C 0
15 *1132:B *1079:A2 8.12678e-05
16 *1132:B *1132:A 1.55434e-05
17 *1132:B *1140:A 0
18 *1132:B *81:28 0
19 *1132:B *83:167 0
20 *1132:B *201:100 2.91894e-05
21 *1132:B *208:81 0.00121219
22 *1132:B *230:61 6.72196e-05
23 *1132:B *253:8 5.97296e-05
24 *1134:B *976:A1 1.88656e-05
25 *1134:B *115:14 5.53549e-06
26 *1136:B *1024:A 4.87939e-05
27 *1136:B *1101:A_N 0.000374529
28 *1136:B *1124:A0 0.000107904
29 *1136:B *169:16 0.000152547
30 *1138:B *970:A 0.000121437
31 *1138:B *1076:A2 2.05056e-05
32 *1138:B *152:24 0.000158066
33 *1140:B *950:B 4.66108e-05
34 *1140:B *1026:A1 4.82863e-05
35 *1140:B *230:61 4.66474e-05
36 *1140:B *253:8 4.91032e-05
37 *64:12 *1006:A3 6.15576e-06
38 *64:12 *1191:A 9.5799e-06
39 *64:12 *89:22 0.00025873
40 *64:32 *950:B 8.23457e-05
41 *64:32 *972:A1 7.5434e-05
42 *64:32 *972:B2 0.000646871
43 *64:32 *975:C 7.56727e-05
44 *64:32 *1007:C 4.09223e-05
45 *64:32 *1026:A1 0.000101493
46 *64:32 *1026:S 1.58398e-05
47 *64:32 *1041:A0 4.27512e-05
48 *64:32 *1041:A1 0.000905129
49 *64:32 *1062:B1 5.1911e-05
50 *64:32 *1081:A 0.000228694
51 *64:32 *83:30 0.000256314
52 *64:32 *89:22 1.03115e-05
53 *64:32 *95:73 0.000230896
54 *64:32 *103:32 0.000140164
55 *64:32 *204:28 3.41952e-05
56 *64:32 *252:54 0.000684473
57 *64:32 *263:50 7.46418e-05
58 *64:68 *945:A1 0.000419747
59 *64:68 *976:A1 0.000164721
60 *64:68 *986:A2 0.000339943
61 *64:68 *1010:A_N 0.000529177
62 *64:68 *1023:S 0.00191473
63 *64:68 *1052:A1 5.96108e-05
64 *64:68 *1059:A 4.4113e-05
65 *64:68 *1080:B 0
66 *64:68 *1093:B1 0.000166866
67 *64:68 *82:18 6.15383e-05
68 *64:68 *82:135 4.89903e-05
69 *64:68 *88:70 4.60466e-05
70 *64:68 *100:65 0.000117278
71 *64:68 *115:14 3.78765e-05
72 *64:68 *124:36 8.53307e-05
73 *64:68 *197:28 0.000325799
74 *64:68 *236:73 0.00010873
75 *64:68 *259:14 5.77833e-05
76 *64:68 *269:26 0.000256678
77 *64:88 *970:A 0.000260717
78 *64:88 *992:B1 0.00111885
79 *64:88 *999:A2 0.000777688
80 *64:88 *1000:B1 0.000309434
81 *64:88 *1023:S 0.000293578
82 *64:88 *1034:A2 0.000127271
83 *64:88 *1060:A 0.000110762
84 *64:88 *1099:B 0.000501561
85 *64:88 *1101:A_N 5.13616e-06
86 *64:88 *1124:A0 0.000280699
87 *64:88 *113:16 0.000506059
88 *1131:A *64:12 5.21123e-05
89 *1131:A *64:32 6.18711e-05
90 *1164:D *1136:B 0.00014934
91 *1181:D *64:68 2.95793e-05
92 *1182:D *1136:B 0.000277975
93 *1183:D *1132:B 0
94 *1185:A *64:32 5.74889e-05
95 *32:60 *1132:B 0
96 *32:60 *64:68 0.00102356
97 *32:60 *64:88 9.54817e-06
*RES
1 *1131:X *64:12 5.30277 
2 *64:12 *64:32 15.6922 
3 *64:32 *1140:B 4.665 
4 *64:32 *1132:B 27.66 
5 *64:12 *64:68 21.2727 
6 *64:68 *64:88 8.6287 
7 *64:88 *1136:B 14.205 
8 *64:88 *1138:B 5.085 
9 *64:68 *1134:B 3.8325 
*END

*D_NET *65 0.0150078
*CONN
*I *1133:A I *D sky130_fd_sc_hd__clkbuf_1
*I *1132:X O *D sky130_fd_sc_hd__and2_1
*CAP
1 *1133:A 0.00104139
2 *1132:X 0.00157363
3 *65:14 0.00261502
4 *1133:A *987:A2 0.000329726
5 *1133:A *1016:A2 8.23114e-05
6 *1133:A *1043:B 0.000135188
7 *1133:A *1062:B1 0.000499398
8 *1133:A *1177:CLK 5.63183e-05
9 *1133:A *127:51 0.000832662
10 *1133:A *145:47 0.000414641
11 *1133:A *234:65 0.000340773
12 *1133:A *235:60 0.000177374
13 *65:14 *941:A 8.84839e-06
14 *65:14 *946:A 1.13272e-05
15 *65:14 *950:B 2.03127e-05
16 *65:14 *954:A 0.00202199
17 *65:14 *963:A_N 0.00075331
18 *65:14 *972:B1 5.5692e-05
19 *65:14 *1020:B 0.00121943
20 *65:14 *1043:B 1.84465e-05
21 *65:14 *1055:A3 2.53191e-06
22 *65:14 *1056:A1 0.00013895
23 *65:14 *1056:C1 4.75059e-05
24 *65:14 *1087:A1 0.000566561
25 *65:14 *1193:A 0.000114337
26 *65:14 *83:146 5.42945e-05
27 *65:14 *83:152 0.000102221
28 *65:14 *84:14 0.000344896
29 *65:14 *108:10 0.000342583
30 *65:14 *110:70 0.000289657
31 *65:14 *116:23 0
32 *65:14 *168:20 0.000229226
33 *65:14 *221:43 0.000165737
34 *65:14 *235:60 5.38475e-05
35 *1121:A *65:14 0.000170446
36 *1177:D *1133:A 0.000160732
37 *1178:D *1133:A 1.65441e-05
*RES
1 *1132:X *65:14 49.6812 
2 *65:14 *1133:A 12.5532 
*END

*D_NET *66 0.00469327
*CONN
*I *1135:A I *D sky130_fd_sc_hd__clkbuf_1
*I *1134:X O *D sky130_fd_sc_hd__and2_1
*CAP
1 *1135:A 0.00146537
2 *1134:X 0.00146537
3 *1135:A *999:A2 0.00101719
4 *1135:A *1013:A 2.10152e-05
5 *1135:A *1086:A 4.36573e-06
6 *1135:A *1099:B 8.1658e-06
7 *1135:A *1122:A1 0
8 *1135:A *155:34 0.000711796
9 *1173:D *1135:A 0
*RES
1 *1134:X *1135:A 28.125 
*END

*D_NET *67 0.0183149
*CONN
*I *1137:A I *D sky130_fd_sc_hd__buf_1
*I *1136:X O *D sky130_fd_sc_hd__and2_1
*CAP
1 *1137:A 0.00237028
2 *1136:X 0.00143072
3 *67:22 0.00385336
4 *67:8 0.00291381
5 *1137:A *959:A3 0.00026538
6 *1137:A *1002:A0 1.18547e-05
7 *1137:A *1020:A 0.000566781
8 *1137:A *1021:B1 0
9 *1137:A *1022:B2 0.000259936
10 *1137:A *1061:A2 8.62076e-05
11 *1137:A *1095:B1 8.52495e-05
12 *1137:A *1124:A1 0.000422012
13 *1137:A *81:28 0.000197741
14 *1137:A *100:32 1.66925e-05
15 *1137:A *109:50 0.000321258
16 *1137:A *141:14 0.00026538
17 *1137:A *247:71 5.25339e-05
18 *67:8 *956:A 1.76876e-05
19 *67:8 *1136:A 0.000245257
20 *67:22 *939:A 0.00102712
21 *67:22 *1011:A1 0.00257907
22 *67:22 *1035:A1_N 4.66108e-05
23 *67:22 *70:32 0.000104095
24 *67:22 *152:24 0.000226538
25 *67:22 *152:42 0.00062796
26 *67:22 *168:55 6.40036e-05
27 *67:22 *211:26 0.000257355
*RES
1 *1136:X *67:8 20.265 
2 *67:8 *67:22 47.2425 
3 *67:22 *1137:A 11.8068 
*END

*D_NET *68 0.00217858
*CONN
*I *1139:A I *D sky130_fd_sc_hd__clkbuf_1
*I *1138:X O *D sky130_fd_sc_hd__and2_1
*CAP
1 *1139:A 0.000471339
2 *1138:X 0.000471339
3 *1139:A *1076:A2 0.000373476
4 *1139:A *1170:CLK 0.00012849
5 *1139:A *84:89 4.36573e-06
6 *1139:A *169:35 0.000234508
7 *1139:A *250:64 0.000449337
8 *53:16 *1139:A 4.57228e-05
*RES
1 *1138:X *1139:A 16.47 
*END

*D_NET *69 0.00442124
*CONN
*I *1141:A I *D sky130_fd_sc_hd__clkbuf_1
*I *1140:X O *D sky130_fd_sc_hd__and2_1
*CAP
1 *1141:A 0.000851305
2 *1140:X 0.000851305
3 *1141:A *964:A 0.000296796
4 *1141:A *981:A2 1.79536e-05
5 *1141:A *1026:A1 0.000629253
6 *1141:A *1067:A 0.000194566
7 *1141:A *1079:A2 4.27883e-06
8 *1141:A *133:8 0.000271385
9 *1141:A *161:32 0.000191343
10 *1141:A *233:23 0.000518188
11 *1141:A *233:143 0.000250708
12 *1141:A *236:33 2.39856e-05
13 *1141:A *255:83 7.1165e-05
14 *1159:D *1141:A 0.000249007
*RES
1 *1140:X *1141:A 28.95 
*END

*D_NET *70 0.028954
*CONN
*I *1143:A I *D sky130_fd_sc_hd__clkbuf_2
*I *273:DIODE I *D sky130_fd_sc_hd__diode_2
*I *1142:X O *D sky130_fd_sc_hd__and3_1
*CAP
1 *1143:A 9.93635e-05
2 *273:DIODE 0
3 *1142:X 0.00866603
4 *70:32 0.0087654
5 *1143:A *974:B 4.47879e-05
6 *1143:A *975:B 2.03162e-05
7 *1143:A *986:A1 6.43122e-05
8 *1143:A *986:B1 8.0168e-05
9 *1143:A *987:B1 0.000133628
10 *1143:A *127:51 7.93611e-06
11 *70:32 *939:A 3.41524e-05
12 *70:32 *975:B 3.20096e-05
13 *70:32 *1008:A1 4.36573e-06
14 *70:32 *1015:C 6.63219e-06
15 *70:32 *1023:S 0.000302482
16 *70:32 *1051:A1 0.00537171
17 *70:32 *1052:B2 0.0029911
18 *70:32 *1090:A 0
19 *70:32 *113:16 2.70838e-05
20 *70:32 *127:51 1.90894e-05
21 *70:32 *147:16 0.00015371
22 *70:32 *152:42 0.000417625
23 *70:32 *158:12 0.00048999
24 *70:32 *168:55 0.000127246
25 *70:32 *173:32 0.000213505
26 *70:32 *211:26 0.000513988
27 *70:32 *221:43 0.00010791
28 *70:32 *229:22 0.000155389
29 *67:22 *70:32 0.000104095
*RES
1 *1142:X *70:32 16.3484 
2 *70:32 *273:DIODE 3.6 
3 *70:32 *1143:A 6.39 
*END

*D_NET *71 0.0192306
*CONN
*I *1146:S I *D sky130_fd_sc_hd__mux2_1
*I *1148:S I *D sky130_fd_sc_hd__mux2_1
*I *1152:S I *D sky130_fd_sc_hd__mux2_1
*I *1144:S I *D sky130_fd_sc_hd__mux2_1
*I *1150:S I *D sky130_fd_sc_hd__mux2_1
*I *1143:X O *D sky130_fd_sc_hd__clkbuf_2
*CAP
1 *1146:S 0.000345457
2 *1148:S 0.000835593
3 *1152:S 0
4 *1144:S 0.00035714
5 *1150:S 0.000238299
6 *1143:X 0.000409842
7 *71:47 0.000392708
8 *71:43 0.00174227
9 *71:20 0.00246222
10 *71:14 0.00210811
11 *1144:S *959:A3 0.000113202
12 *1144:S *1002:A0 4.60061e-05
13 *1144:S *1002:S 8.64421e-05
14 *1144:S *1152:A1 1.77945e-05
15 *1144:S *141:14 0.000514575
16 *1146:S *972:A1 0.000112734
17 *1146:S *972:C1 2.2684e-05
18 *1146:S *1056:A1 0
19 *1146:S *1069:A 0.00026102
20 *1146:S *1146:A1 0.000116889
21 *1146:S *1147:A 0.000120301
22 *1146:S *110:70 3.68008e-05
23 *1146:S *174:29 3.59531e-06
24 *1148:S *950:B 4.8328e-06
25 *1148:S *952:D 0.000225955
26 *1148:S *1014:B 0.000230656
27 *1148:S *1015:A 0.00012289
28 *1148:S *1149:A 4.29365e-05
29 *1148:S *1152:A0 0.000210893
30 *1148:S *77:49 0.000125719
31 *1148:S *174:45 2.20014e-05
32 *1148:S *174:57 0.00041953
33 *1150:S *1032:B1 0.000119576
34 *1150:S *1150:A1 0.000222983
35 *1150:S *171:20 3.46783e-05
36 *1150:S *171:40 2.20014e-05
37 *1150:S *191:97 4.66108e-05
38 *1150:S *191:124 0.000175059
39 *1150:S *201:16 1.36073e-05
40 *1150:S *201:33 1.10085e-05
41 *71:14 *972:A1 1.07797e-05
42 *71:14 *974:B 4.77757e-05
43 *71:14 *987:B1 2.93678e-05
44 *71:14 *992:B1 0.000498614
45 *71:14 *1041:A0 7.92674e-05
46 *71:14 *1147:A 5.90946e-05
47 *71:14 *1154:A 0.000226715
48 *71:14 *90:34 0.00020855
49 *71:14 *112:41 4.07147e-05
50 *71:14 *118:63 0.0004554
51 *71:20 *972:A1 0.00139553
52 *71:20 *1004:C1 8.34281e-06
53 *71:20 *1154:A 4.66108e-05
54 *71:20 *234:95 0.000173434
55 *71:43 *959:A3 0.000202582
56 *71:43 *984:A 0.00058649
57 *71:43 *1025:A1 7.77689e-05
58 *71:43 *1032:B1 0.00067306
59 *71:43 *1152:A1 2.10214e-05
60 *71:43 *1153:A 8.40213e-05
61 *71:43 *77:43 2.39239e-05
62 *71:43 *98:42 1.67131e-05
63 *71:43 *155:63 1.66925e-05
64 *71:43 *174:73 0.000447115
65 *71:43 *191:124 0.000101903
66 *71:43 *237:53 0.000106472
67 *71:47 *959:A3 4.66108e-05
68 *71:47 *1152:A1 1.10213e-05
69 *1107:S *1148:S 0.00023135
70 *37:16 *1144:S 0.000600197
71 *50:18 *1146:S 0.000308828
*RES
1 *1143:X *71:14 15.42 
2 *71:14 *71:20 21.01 
3 *71:20 *1150:S 8.88 
4 *71:20 *71:43 20.99 
5 *71:43 *71:47 0.81 
6 *71:47 *1144:S 11.05 
7 *71:47 *1152:S 1.6 
8 *71:43 *1148:S 22.1 
9 *71:14 *1146:S 11.835 
*END

*D_NET *72 0.00858405
*CONN
*I *1145:A I *D sky130_fd_sc_hd__clkbuf_1
*I *1144:X O *D sky130_fd_sc_hd__mux2_1
*CAP
1 *1145:A 0.00184879
2 *1144:X 0.00184879
3 *1145:A *953:A1 8.40269e-05
4 *1145:A *1098:A1 6.28389e-05
5 *1145:A *1103:A0 0.000813731
6 *1145:A *1120:A0 0.00169254
7 *1145:A *109:40 0.000378347
8 *1145:A *139:18 0.000293606
9 *1145:A *153:24 0.000389453
10 *1145:A *239:10 0
11 *1145:A *239:22 0.000160145
12 *1159:D *1145:A 0.00101178
*RES
1 *1144:X *1145:A 45.78 
*END

*D_NET *73 0.00523512
*CONN
*I *1147:A I *D sky130_fd_sc_hd__clkbuf_1
*I *1146:X O *D sky130_fd_sc_hd__mux2_1
*CAP
1 *1147:A 0.0010911
2 *1146:X 0.0010911
3 *1147:A *992:B1 0.000153771
4 *1147:A *1006:A2 0.00113315
5 *1147:A *1146:A1 4.66108e-05
6 *1147:A *90:34 0.000422065
7 *1147:A *113:10 1.88656e-05
8 *1147:A *118:63 0
9 *1147:A *197:28 0.000479138
10 *1147:A *218:20 4.96039e-05
11 *1125:A *1147:A 2.85364e-05
12 *1127:A *1147:A 9.66021e-05
13 *1146:S *1147:A 0.000120301
14 *1177:D *1147:A 1.7635e-05
15 *1181:D *1147:A 8.26543e-05
16 *32:60 *1147:A 1.67235e-05
17 *50:18 *1147:A 0.000328169
18 *71:14 *1147:A 5.90946e-05
*RES
1 *1146:X *1147:A 32.835 
*END

*D_NET *74 0.00616864
*CONN
*I *1149:A I *D sky130_fd_sc_hd__buf_1
*I *1148:X O *D sky130_fd_sc_hd__mux2_1
*CAP
1 *1149:A 0.00156372
2 *1148:X 0.00156372
3 *1149:A *1014:B 0.000566757
4 *1149:A *1142:C 0.0018601
5 *1107:S *1149:A 0.000571412
6 *1148:S *1149:A 4.29365e-05
*RES
1 *1148:X *1149:A 36.8 
*END

*D_NET *75 0.00115865
*CONN
*I *1151:A I *D sky130_fd_sc_hd__buf_1
*I *1150:X O *D sky130_fd_sc_hd__mux2_1
*CAP
1 *1151:A 0.000210681
2 *1150:X 0.000210681
3 *1151:A *1025:A1 2.46837e-05
4 *1151:A *1025:A2 0.000146298
5 *1151:A *1025:B1 5.91413e-05
6 *1151:A *1039:A1 4.13315e-05
7 *1151:A *248:23 3.27931e-05
8 *31:28 *1151:A 0.000433043
*RES
1 *1150:X *1151:A 12.66 
*END

*D_NET *76 0.0161651
*CONN
*I *1153:A I *D sky130_fd_sc_hd__buf_1
*I *1152:X O *D sky130_fd_sc_hd__mux2_1
*CAP
1 *1153:A 0.00515304
2 *1152:X 0.00515304
3 *1153:A *946:A 4.26465e-05
4 *1153:A *953:A1 0.000199495
5 *1153:A *953:A2 5.02814e-06
6 *1153:A *953:C1 0.000103785
7 *1153:A *967:A 0.000218261
8 *1153:A *976:B1 0.000340587
9 *1153:A *980:B 0.000228644
10 *1153:A *988:C 6.56959e-05
11 *1153:A *1006:A3 0.000765119
12 *1153:A *1050:A0 0.000126924
13 *1153:A *1051:A1 0.00018521
14 *1153:A *1078:A3 1.80303e-05
15 *1153:A *1080:B 0.000220436
16 *1153:A *1097:A2 0
17 *1153:A *1098:A2 0.000124106
18 *1153:A *81:12 0.000286282
19 *1153:A *81:28 0.000561555
20 *1153:A *97:22 3.59531e-06
21 *1153:A *98:42 2.16833e-05
22 *1153:A *98:72 0.00039353
23 *1153:A *98:79 7.66388e-05
24 *1153:A *106:37 0.000129409
25 *1153:A *108:49 8.85211e-05
26 *1153:A *121:18 0
27 *1153:A *128:38 0.000202302
28 *1153:A *206:18 6.62365e-05
29 *1153:A *260:40 5.75434e-05
30 *1153:A *263:50 0.000867188
31 seg[2] *1153:A 7.70233e-05
32 *1176:D *1153:A 0.000196717
33 *1182:RESET_B *1153:A 3.03177e-05
34 *48:38 *1153:A 7.24707e-05
35 *71:43 *1153:A 8.40213e-05
*RES
1 *1152:X *1153:A 37.7857 
*END

*D_NET *77 0.0280811
*CONN
*I *1003:D I *D sky130_fd_sc_hd__and4b_1
*I *936:A I *D sky130_fd_sc_hd__clkbuf_2
*I *975:D I *D sky130_fd_sc_hd__and4b_1
*I *955:A_N I *D sky130_fd_sc_hd__and2b_1
*I *979:A I *D sky130_fd_sc_hd__nor2_2
*I *949:C I *D sky130_fd_sc_hd__nand3b_4
*I *952:D I *D sky130_fd_sc_hd__and4bb_1
*I *963:C I *D sky130_fd_sc_hd__and3b_1
*I *1002:A1 I *D sky130_fd_sc_hd__mux2_2
*I *1007:D I *D sky130_fd_sc_hd__and4b_1
*I *935:X O *D sky130_fd_sc_hd__clkbuf_4
*CAP
1 *1003:D 5.86219e-05
2 *936:A 0.00090693
3 *975:D 0
4 *955:A_N 0.000219868
5 *979:A 7.51073e-05
6 *949:C 0
7 *952:D 0.000602627
8 *963:C 0.00036108
9 *1002:A1 0.000134949
10 *1007:D 8.84804e-05
11 *935:X 0.000273079
12 *77:145 0.000868756
13 *77:131 0.00105493
14 *77:121 0.00148312
15 *77:117 0.000586806
16 *77:55 0.000685421
17 *77:49 0.00100728
18 *77:43 0.00105365
19 *77:10 0.00114408
20 *77:6 0.000923428
21 *936:A *996:A 6.33103e-05
22 *936:A *1037:B1 0.000194906
23 *936:A *1177:CLK 0.000188559
24 *936:A *78:16 2.19562e-06
25 *936:A *108:65 5.94099e-05
26 *936:A *135:10 0.000104871
27 *952:D *950:B 6.46354e-05
28 *952:D *953:A1 8.8742e-05
29 *952:D *965:A 0.000300325
30 *952:D *1015:A 0.000448638
31 *952:D *1020:A 0
32 *952:D *1148:A0 8.89938e-05
33 *952:D *1158:CLK 4.66108e-05
34 *952:D *104:10 5.95719e-05
35 *952:D *167:38 6.32187e-05
36 *952:D *267:26 4.66108e-05
37 *955:A_N *955:B 4.70705e-05
38 *955:A_N *1052:B2 0
39 *955:A_N *1093:B1 9.84109e-05
40 *955:A_N *82:54 2.8531e-05
41 *955:A_N *82:66 3.5727e-05
42 *963:C *1002:S 6.74241e-05
43 *963:C *83:167 0.000156438
44 *963:C *104:10 7.15414e-05
45 *963:C *104:14 0.000122821
46 *963:C *106:57 0.000743406
47 *963:C *170:43 0.000966749
48 *979:A *1024:B 7.40907e-05
49 *979:A *118:24 4.66108e-05
50 *1002:A1 *950:B 0
51 *1002:A1 *1002:S 0.000113669
52 *1003:D *1041:A1 7.12417e-05
53 *1003:D *82:30 0.000118563
54 *1003:D *218:20 0
55 *1007:D *972:A1 4.3338e-06
56 *1007:D *83:94 4.66108e-05
57 *1007:D *236:39 4.63782e-05
58 *77:6 *1072:A 0.00030267
59 *77:6 *1192:A 9.97536e-06
60 *77:6 *83:94 4.75991e-05
61 *77:10 *972:A1 0
62 *77:10 *83:94 0.000252626
63 *77:43 *984:A 0.000473333
64 *77:43 *1025:A1 0.000633394
65 *77:43 *1035:B1 2.01565e-05
66 *77:43 *1035:B2 7.45154e-05
67 *77:43 *1063:A 1.14169e-05
68 *77:43 *1102:A 5.02814e-06
69 *77:43 *83:30 1.49755e-05
70 *77:43 *83:61 5.01569e-05
71 *77:43 *88:54 0.000146679
72 *77:43 *90:34 0.000101456
73 *77:43 *90:84 7.32056e-05
74 *77:43 *146:32 3.11704e-05
75 *77:43 *155:82 0.000258521
76 *77:43 *170:43 0.000229645
77 *77:43 *234:148 0.000115879
78 *77:43 *234:163 4.90071e-05
79 *77:43 *236:49 4.66474e-05
80 *77:43 *237:53 0.000589643
81 *77:49 *949:B 8.7152e-06
82 *77:49 *953:A1 8.53307e-05
83 *77:49 *1075:A1 3.46972e-05
84 *77:49 *1152:A1 0.000147556
85 *77:49 *88:54 4.82863e-05
86 *77:49 *110:53 3.69766e-05
87 *77:49 *141:14 2.9686e-05
88 *77:49 *170:43 4.66108e-05
89 *77:55 *950:B 0.00066459
90 *77:55 *1144:A0 0.000733142
91 *77:55 *93:37 3.96653e-05
92 *77:117 *957:A 0.00032807
93 *77:117 *972:A1 2.39856e-05
94 *77:117 *1041:A1 5.83121e-06
95 *77:117 *1072:B 0.000151518
96 *77:117 *78:51 0.000137292
97 *77:117 *82:30 0.000190712
98 *77:117 *90:34 0.000408684
99 *77:117 *191:97 0.000276758
100 *77:117 *198:28 0
101 *77:117 *201:80 0.000169927
102 *77:117 *218:20 0.000164538
103 *77:117 *234:91 4.68642e-05
104 *77:121 *235:31 0.000150672
105 *77:121 *239:76 9.58333e-05
106 *77:131 *975:B 0.000420916
107 *77:131 *975:C 0.000136921
108 *77:131 *976:C1 0.000206017
109 *77:131 *145:47 0.000549761
110 *77:131 *235:31 3.77809e-05
111 *77:131 *239:76 0.000629959
112 *77:145 *975:B 9.5482e-05
113 *77:145 *975:C 5.91231e-05
114 *77:145 *1024:B 0.000470675
115 *77:145 *118:24 0.000155608
116 *77:145 *259:14 0.000409007
117 *1107:S *77:49 0
118 *1113:S *955:A_N 5.36903e-05
119 *1132:B *963:C 0
120 *1148:S *952:D 0.000225955
121 *1148:S *77:49 0.000125719
122 *1158:D *952:D 0.000198404
123 *1170:D *77:145 0.000415952
124 *1177:D *936:A 1.50866e-05
125 *31:28 *77:145 9.83921e-06
126 *56:26 *77:117 1.13272e-05
127 *57:36 *77:121 5.78448e-05
128 *71:43 *77:43 2.39239e-05
*RES
1 *935:X *77:6 5.155 
2 *77:6 *77:10 2.88 
3 *77:10 *1007:D 3.19375 
4 *77:10 *77:43 29.27 
5 *77:43 *77:49 6.38 
6 *77:49 *77:55 11.005 
7 *77:55 *1002:A1 5.43 
8 *77:55 *963:C 15.585 
9 *77:49 *952:D 20.47 
10 *77:43 *949:C 1.6 
11 *77:6 *77:117 19.805 
12 *77:117 *77:121 4.4 
13 *77:121 *77:131 15.3162 
14 *77:131 *77:145 16.0938 
15 *77:145 *979:A 3.1 
16 *77:145 *955:A_N 9.785 
17 *77:131 *975:D 1.6 
18 *77:121 *936:A 14.865 
19 *77:117 *1003:D 3.19375 
*END

*D_NET *78 0.0278052
*CONN
*I *1010:A_N I *D sky130_fd_sc_hd__and2b_1
*I *954:A I *D sky130_fd_sc_hd__or2b_2
*I *966:A_N I *D sky130_fd_sc_hd__and3b_1
*I *1009:A1 I *D sky130_fd_sc_hd__o21a_1
*I *937:A I *D sky130_fd_sc_hd__clkbuf_1
*I *936:X O *D sky130_fd_sc_hd__clkbuf_2
*CAP
1 *1010:A_N 0.000429008
2 *954:A 0.00201646
3 *966:A_N 2.21603e-05
4 *1009:A1 0.000656177
5 *937:A 0.0013688
6 *936:X 0.000356504
7 *78:84 0.00315481
8 *78:51 0.00215369
9 *78:16 0.00233117
10 *78:6 0.00136656
11 *937:A *957:A 0.00058026
12 *937:A *978:A 0.000428533
13 *937:A *978:B 0.000426857
14 *937:A *1003:A_N 1.86045e-05
15 *937:A *1016:A2 0.000881606
16 *937:A *1092:A 3.75952e-05
17 *937:A *1194:A 0.000146541
18 *937:A *81:72 1.66367e-05
19 *937:A *100:65 2.20023e-05
20 *937:A *126:22 0.000321891
21 *937:A *149:30 6.56811e-05
22 *937:A *191:54 0.000225733
23 *937:A *191:79 1.07306e-05
24 *937:A *239:64 0
25 *954:A *1087:A1 0.000486907
26 *954:A *1107:A1 0
27 *954:A *1132:A 0.000198994
28 *954:A *83:152 4.31385e-06
29 *954:A *84:26 0
30 *954:A *155:98 0.00016793
31 *954:A *174:45 4.61701e-06
32 *954:A *201:90 0.000230288
33 *966:A_N *1097:A2 8.40213e-05
34 *966:A_N *1098:B1 8.23457e-05
35 *1009:A1 *972:B2 0.000367656
36 *1009:A1 *1009:B1 4.77757e-05
37 *1009:A1 *1178:CLK 4.60123e-05
38 *1009:A1 *89:22 0.000463796
39 *1009:A1 *90:42 4.66605e-05
40 *1009:A1 *95:73 4.61701e-06
41 *1009:A1 *227:67 1.83975e-05
42 *1009:A1 *234:163 1.68781e-05
43 *1009:A1 *252:54 2.08474e-05
44 *1010:A_N *1010:B 0.000448598
45 *1010:A_N *1059:A 0.00052902
46 *1010:A_N *1099:A 0.000194789
47 *78:6 *996:A 8.34281e-06
48 *78:6 *135:10 0.000446828
49 *78:16 *957:A 2.10582e-05
50 *78:16 *996:A 1.56428e-05
51 *78:16 *1177:CLK 0.00031956
52 *78:16 *267:26 8.23457e-05
53 *78:51 *957:A 9.50189e-06
54 *78:51 *1016:A2 1.66367e-05
55 *78:51 *1117:D_N 4.12831e-05
56 *78:51 *1154:A 3.92756e-05
57 *78:51 *81:72 0.000542308
58 *78:51 *235:60 0.000296131
59 *78:84 *946:A 9.02882e-05
60 *78:84 *972:B1 3.5734e-05
61 *78:84 *1020:A 0
62 *78:84 *1058:D 4.3593e-05
63 *78:84 *1097:A1 0.000122054
64 *78:84 *1097:B1 4.23528e-05
65 *78:84 *81:12 7.54285e-05
66 *78:84 *81:28 0.000204171
67 *78:84 *81:72 0.000746182
68 *78:84 *155:98 2.60673e-05
69 *78:84 *235:60 0.000451409
70 *78:84 *256:22 9.96128e-05
71 *936:A *78:16 2.19562e-06
72 *1110:A *1010:A_N 0.000260695
73 *1118:A *937:A 2.33002e-05
74 *1123:A *937:A 0.000109207
75 *1132:B *954:A 7.87215e-06
76 *1178:D *1009:A1 7.12448e-05
77 *1178:D *78:16 0
78 *56:26 *937:A 0
79 *56:26 *78:16 7.74592e-05
80 *56:26 *78:51 0.000168401
81 *57:36 *78:16 0.000118081
82 *58:28 *954:A 0
83 *64:68 *1010:A_N 0.000529177
84 *65:14 *954:A 0.00202199
85 *77:117 *78:51 0.000137292
*RES
1 *936:X *78:6 6.19 
2 *78:6 *78:16 10.8125 
3 *78:16 *937:A 23.2772 
4 *78:16 *78:51 4.28373 
5 *78:51 *1009:A1 10.9088 
6 *78:51 *78:84 7.4333 
7 *78:84 *966:A_N 4.395 
8 *78:84 *954:A 34.215 
9 *78:6 *1010:A_N 18.53 
*END

*D_NET *79 0.00838307
*CONN
*I *938:A I *D sky130_fd_sc_hd__buf_1
*I *937:X O *D sky130_fd_sc_hd__clkbuf_1
*CAP
1 *938:A 0.00231478
2 *937:X 0.00231478
3 *938:A *1016:A1 0.000135352
4 *938:A *1093:B1 5.65948e-05
5 *938:A *1122:A1 0
6 *938:A *1170:CLK 0.000261537
7 *938:A *116:98 0.000499834
8 *938:A *155:22 2.9167e-05
9 *938:A *184:20 5.68523e-06
10 *938:A *185:20 0
11 *938:A *215:14 0.0017211
12 *938:A *255:20 0.000154986
13 *272:DIODE *938:A 6.52411e-05
14 *1111:S *938:A 0.000121659
15 *1124:S *938:A 0.000156762
16 *1163:D *938:A 0
17 *1170:D *938:A 0.000117028
18 *1182:D *938:A 0.00038196
19 *49:39 *938:A 4.66108e-05
*RES
1 *937:X *938:A 44.19 
*END

*D_NET *80 0.0257691
*CONN
*I *939:A I *D sky130_fd_sc_hd__buf_2
*I *938:X O *D sky130_fd_sc_hd__buf_1
*CAP
1 *939:A 0.00904783
2 *938:X 0.00904783
3 *939:A *946:A 5.66612e-05
4 *939:A *956:A 2.07171e-05
5 *939:A *1011:A1 0.00049277
6 *939:A *1016:A2 0.000489075
7 *939:A *1023:S 0
8 *939:A *1030:A 1.7635e-05
9 *939:A *1051:A1 0.00145852
10 *939:A *1052:B2 0
11 *939:A *1061:A2 0.000195768
12 *939:A *1062:B1 4.68109e-05
13 *939:A *1097:B1 2.94622e-05
14 *939:A *1101:B 0
15 *939:A *1124:A1 0.000213357
16 *939:A *1194:A 1.25379e-05
17 *939:A *81:12 4.05044e-05
18 *939:A *109:50 0.00242564
19 *939:A *152:24 0.000127894
20 *939:A *155:98 0.000122045
21 *939:A *168:20 0.000105131
22 *939:A *168:55 0.000210502
23 *939:A *235:60 3.92756e-05
24 *939:A *267:26 0.000119216
25 *1163:D *939:A 0.000315275
26 *1181:D *939:A 5.44718e-05
27 *53:16 *939:A 1.88656e-05
28 *67:22 *939:A 0.00102712
29 *70:32 *939:A 3.41524e-05
*RES
1 *938:X *939:A 21.1648 
*END

*D_NET *81 0.0366419
*CONN
*I *1117:A I *D sky130_fd_sc_hd__or4b_1
*I *1037:B1 I *D sky130_fd_sc_hd__o21ai_1
*I *991:B1 I *D sky130_fd_sc_hd__o21a_2
*I *1130:A I *D sky130_fd_sc_hd__nand3_1
*I *944:A I *D sky130_fd_sc_hd__xor2_1
*I *1142:A I *D sky130_fd_sc_hd__and3_1
*I *939:X O *D sky130_fd_sc_hd__buf_2
*CAP
1 *1117:A 6.87423e-05
2 *1037:B1 0.00112227
3 *991:B1 0.0002102
4 *1130:A 0.00133231
5 *944:A 6.8324e-05
6 *1142:A 0.000985204
7 *939:X 0.000151615
8 *81:122 0.00119101
9 *81:92 0.00247806
10 *81:72 0.00215533
11 *81:28 0.00283498
12 *81:12 0.00315285
13 *944:A *985:C1 9.71194e-05
14 *991:B1 *84:83 2.86975e-05
15 *991:B1 *96:28 0.00013202
16 *991:B1 *116:98 0.000270238
17 *991:B1 *138:32 6.4485e-05
18 *1037:B1 *975:B 1.75432e-05
19 *1037:B1 *1052:A1 0.000743195
20 *1037:B1 *1080:A 2.82864e-05
21 *1037:B1 *1104:A 7.14892e-06
22 *1037:B1 *1126:A1 0.000229074
23 *1037:B1 *1177:CLK 0.000339631
24 *1037:B1 *82:54 0.000125626
25 *1037:B1 *127:51 9.57912e-05
26 *1037:B1 *206:18 9.12671e-06
27 *1037:B1 *206:34 0.000276676
28 *1037:B1 *235:10 0.000306294
29 *1037:B1 *235:31 4.64762e-05
30 *1117:A *975:C 8.6777e-06
31 *1117:A *1018:A 7.14892e-06
32 *1117:A *1117:C 4.55864e-06
33 *1117:A *82:54 1.88656e-05
34 *1130:A *959:A3 2.55345e-05
35 *1130:A *964:A 5.97984e-05
36 *1130:A *985:B1 1.08758e-05
37 *1130:A *1071:A 0.000237893
38 *1130:A *1130:B 5.35313e-05
39 *1130:A *1130:C 0.000476135
40 *1130:A *1173:CLK 0.000111607
41 *1130:A *96:28 0.000298833
42 *1130:A *116:98 0.000110338
43 *1142:A *1008:A1 5.06989e-05
44 *1142:A *1021:B1 0.000347353
45 *1142:A *1060:A 0.0009186
46 *1142:A *1095:B1 0.000708026
47 *1142:A *1142:C 0.000447835
48 *1142:A *1180:CLK 0.000101506
49 *1142:A *106:80 0.000747478
50 *1142:A *109:50 0.000107174
51 *1142:A *152:42 1.52352e-05
52 *81:12 *946:A 1.07112e-05
53 *81:12 *1056:C1 1.92979e-05
54 *81:12 *235:60 0.000107452
55 *81:12 *267:26 1.92979e-05
56 *81:28 *946:A 5.43112e-05
57 *81:28 *953:A1 0.000707907
58 *81:28 *953:C1 0.000112807
59 *81:28 *1002:S 1.88877e-05
60 *81:28 *1020:A 0.000334512
61 *81:28 *1021:B1 0.000197369
62 *81:28 *1022:B2 0.000114389
63 *81:28 *1095:B1 0.000427117
64 *81:28 *1097:B2 2.62229e-05
65 *81:28 *1115:A0 0.000525429
66 *81:28 *110:53 0.000115376
67 *81:28 *236:156 0.000219655
68 *81:28 *236:173 0.000354198
69 *81:72 *957:A 2.38374e-05
70 *81:72 *972:B1 0.000640377
71 *81:72 *975:C 0.000148385
72 *81:72 *977:A_N 0.000127543
73 *81:72 *982:B 0.000127543
74 *81:72 *1003:A_N 8.10427e-06
75 *81:72 *1016:A2 6.17432e-05
76 *81:72 *100:65 9.874e-05
77 *81:72 *108:49 4.12356e-05
78 *81:72 *157:30 0.000231374
79 *81:72 *191:79 0.000170891
80 *81:72 *263:50 0.000148823
81 *81:92 *1004:A1 0.000141641
82 *81:92 *1080:B 0.00099839
83 *81:92 *100:65 0.000101665
84 *81:92 *145:47 0.000217419
85 *81:92 *157:30 0.00019538
86 *81:92 *227:67 0.000530335
87 *81:92 *234:16 0.000158002
88 *81:92 *250:64 4.99782e-05
89 *936:A *1037:B1 0.000194906
90 *937:A *81:72 1.66367e-05
91 *939:A *81:12 4.05044e-05
92 *1116:A *81:92 0.000741723
93 *1118:A *1037:B1 1.97442e-05
94 *1118:A *1117:A 9.387e-06
95 *1132:B *81:28 0
96 *1137:A *81:28 0.000197741
97 *1153:A *81:12 0.000286282
98 *1153:A *81:28 0.000561555
99 *1159:D *944:A 4.66108e-05
100 *1161:D *1037:B1 2.43474e-05
101 *1161:D *1117:A 2.53191e-06
102 *1163:D *1130:A 0.000327078
103 *1166:D *81:92 0.0011721
104 *1172:D *81:92 2.89558e-05
105 *1182:RESET_B *1037:B1 0.00014104
106 *1183:D *81:28 1.74629e-05
107 *1184:D *944:A 9.83446e-05
108 *32:60 *81:28 3.86814e-05
109 *57:36 *1037:B1 4.98794e-05
110 *57:50 *1037:B1 2.72318e-05
111 *57:50 *81:92 8.73147e-06
112 *78:51 *81:72 0.000542308
113 *78:84 *81:12 7.54285e-05
114 *78:84 *81:28 0.000204171
115 *78:84 *81:72 0.000746182
*RES
1 *939:X *81:12 4.83663 
2 *81:12 *81:28 8.0562 
3 *81:28 *1142:A 22.9076 
4 *81:28 *944:A 5.8025 
5 *81:12 *81:72 7.17153 
6 *81:72 *81:92 29.5118 
7 *81:92 *1130:A 23.4 
8 *81:92 *991:B1 8.28 
9 *81:72 *81:122 0.5 
10 *81:122 *1037:B1 31.4275 
11 *81:122 *1117:A 4.5975 
*END

*D_NET *82 0.0476124
*CONN
*I *1037:A1 I *D sky130_fd_sc_hd__o21ai_1
*I *958:A I *D sky130_fd_sc_hd__nor2_1
*I *963:A_N I *D sky130_fd_sc_hd__and3b_1
*I *966:B I *D sky130_fd_sc_hd__and3b_1
*I *945:B1 I *D sky130_fd_sc_hd__a21oi_1
*I *1117:B I *D sky130_fd_sc_hd__or4b_1
*I *979:B I *D sky130_fd_sc_hd__nor2_2
*I *1130:C I *D sky130_fd_sc_hd__nand3_1
*I *991:A1 I *D sky130_fd_sc_hd__o21a_2
*I *943:B I *D sky130_fd_sc_hd__and3_1
*I *940:X O *D sky130_fd_sc_hd__clkbuf_4
*CAP
1 *1037:A1 0.000408364
2 *958:A 2.2633e-05
3 *963:A_N 0.00290817
4 *966:B 0.000376215
5 *945:B1 0
6 *1117:B 0
7 *979:B 0
8 *1130:C 0.000930383
9 *991:A1 2.71951e-05
10 *943:B 0.000160155
11 *940:X 0.000767092
12 *82:162 0.00406596
13 *82:154 0.00116413
14 *82:135 0.00107996
15 *82:79 0.00135598
16 *82:66 0.00205251
17 *82:54 0.00251482
18 *82:30 0.00197112
19 *82:18 0.00215584
20 *82:12 0.00166102
21 *943:B *1024:A 0.000137031
22 *958:A *980:A 1.41165e-05
23 *963:A_N *946:A 0.000109551
24 *963:A_N *998:A 0.0034328
25 *963:A_N *1008:B1 0.00143404
26 *963:A_N *1055:A3 0.000103203
27 *963:A_N *1079:A2 0.00012651
28 *963:A_N *1090:A 0
29 *963:A_N *1180:CLK 0.000503057
30 *963:A_N *104:14 0.000153816
31 *963:A_N *106:65 0
32 *963:A_N *116:23 9.91608e-05
33 *963:A_N *185:63 0
34 *963:A_N *211:26 5.78114e-05
35 *966:B *967:A 2.20934e-05
36 *966:B *1097:A2 1.03323e-05
37 *966:B *1098:B1 4.66108e-05
38 *966:B *84:26 2.39856e-05
39 *991:A1 *84:89 8.40213e-05
40 *991:A1 *138:32 4.41506e-05
41 *1037:A1 *988:A 0.000139245
42 *1037:A1 *1080:B 9.50342e-06
43 *1037:A1 *90:34 0.000270741
44 *1037:A1 *128:12 1.32017e-05
45 *1037:A1 *180:43 9.54399e-05
46 *1130:C *959:A3 0.00010408
47 *1130:C *964:A 0.000268313
48 *1130:C *1026:A0 0.000305169
49 *1130:C *1028:B1 0.000428299
50 *1130:C *1076:A2 3.88329e-05
51 *1130:C *1130:B 5.26948e-05
52 *1130:C *96:28 0
53 *1130:C *153:24 0
54 *1130:C *175:12 1.88602e-05
55 *1130:C *255:20 0.000191549
56 *1130:C *255:83 0.000476069
57 *1130:C *258:24 5.84759e-05
58 *82:12 *976:A2 3.85753e-05
59 *82:12 *976:B1 0.000113942
60 *82:12 *988:B 0
61 *82:12 *1113:A0 0.000381867
62 *82:12 *1191:A 0.00102173
63 *82:12 *1194:A 0.000351623
64 *82:12 *89:48 5.20661e-05
65 *82:12 *127:51 2.21074e-05
66 *82:12 *216:79 0
67 *82:18 *986:A2 0.000273445
68 *82:18 *986:B1 0.000157551
69 *82:18 *1052:A1 7.03276e-05
70 *82:18 *1080:B 0.000213198
71 *82:18 *90:34 0.000129336
72 *82:18 *108:65 3.59932e-05
73 *82:18 *125:6 7.11235e-06
74 *82:18 *223:30 6.70919e-06
75 *82:30 *1041:A1 4.22082e-05
76 *82:30 *1041:S 4.90227e-05
77 *82:30 *1050:S 6.61627e-05
78 *82:30 *118:63 0.000146025
79 *82:30 *218:20 0.000148319
80 *82:54 *987:A2 4.41506e-05
81 *82:54 *1006:A1 0.000570462
82 *82:54 *1017:B 0.000216518
83 *82:54 *1093:B1 0.000230222
84 *82:54 *1126:A1 0.000246645
85 *82:54 *100:65 0.000179061
86 *82:54 *138:32 0.000146589
87 *82:54 *145:47 0.000374727
88 *82:54 *157:30 0.000289534
89 *82:54 *247:18 2.34844e-05
90 *82:66 *1011:A1 0.000101392
91 *82:66 *1076:B1 0.0010858
92 *82:66 *1164:CLK 6.08463e-05
93 *82:66 *239:64 0
94 *82:79 *1028:B1 7.1037e-05
95 *82:79 *1092:A 0
96 *82:79 *85:20 0
97 *82:79 *151:10 0.000533266
98 *82:79 *155:26 3.07101e-05
99 *82:135 *945:A1 0.000230529
100 *82:135 *1016:A2 7.33639e-05
101 *82:135 *1056:B1 8.24728e-05
102 *82:135 *1093:B1 0.00089776
103 *82:135 *1105:A 7.56872e-05
104 *82:135 *1193:A 7.10154e-05
105 *82:135 *83:94 0.000144341
106 *82:135 *88:70 1.16875e-05
107 *82:135 *121:18 0.000900501
108 *82:154 *946:B 0.000298167
109 *82:154 *980:A 2.68464e-05
110 *82:154 *1056:B1 0.000335219
111 *82:154 *88:70 3.27349e-05
112 *82:154 *223:30 4.41506e-05
113 *82:162 *958:B 8.7152e-06
114 *82:162 *967:A 6.01884e-06
115 *82:162 *1029:B1_N 3.05373e-05
116 *82:162 *1128:A1 0
117 *82:162 *97:22 7.06865e-05
118 *82:162 *128:38 0.000594719
119 *82:162 *167:38 9.90903e-05
120 *82:162 *207:18 2.25257e-05
121 *955:A_N *82:54 2.8531e-05
122 *955:A_N *82:66 3.5727e-05
123 *1003:D *82:30 0.000118563
124 *1037:B1 *82:54 0.000125626
125 *1113:S *82:54 1.4041e-05
126 *1113:S *82:66 0.000128476
127 *1117:A *82:54 1.88656e-05
128 *1118:A *82:30 4.66108e-05
129 *1118:A *82:54 0.000108126
130 *1130:A *1130:C 0.000476135
131 *1163:D *1130:C 0.000216615
132 *1164:D *82:66 0.00016692
133 *49:39 *82:79 2.7703e-05
134 *56:26 *82:135 4.07391e-05
135 *56:26 *82:154 3.12855e-05
136 *57:36 *82:18 1.7635e-05
137 *57:36 *82:135 0.000156754
138 *57:50 *82:54 0.000164666
139 *57:87 *1130:C 6.51539e-05
140 *57:87 *82:79 0.000486777
141 *64:68 *82:18 6.15383e-05
142 *64:68 *82:135 4.89903e-05
143 *65:14 *963:A_N 0.00075331
144 *77:117 *82:30 0.000190712
*RES
1 *940:X *82:12 21.845 
2 *82:12 *82:18 10.85 
3 *82:18 *82:30 14.075 
4 *82:30 *82:54 29.745 
5 *82:54 *82:66 23.965 
6 *82:66 *943:B 5.775 
7 *82:66 *82:79 9.48 
8 *82:79 *991:A1 4.395 
9 *82:79 *1130:C 27.255 
10 *82:54 *979:B 3.6 
11 *82:30 *1117:B 1.6 
12 *82:18 *82:135 8.673 
13 *82:135 *945:B1 3.6 
14 *82:135 *82:154 9.785 
15 *82:154 *82:162 15.265 
16 *82:162 *966:B 5.5 
17 *82:162 *963:A_N 28.4397 
18 *82:154 *958:A 2.05 
19 *82:12 *1037:A1 11.825 
*END

*D_NET *83 0.0349841
*CONN
*I *942:A I *D sky130_fd_sc_hd__clkbuf_4
*I *963:B I *D sky130_fd_sc_hd__and3b_1
*I *1002:S I *D sky130_fd_sc_hd__mux2_2
*I *954:B_N I *D sky130_fd_sc_hd__or2b_2
*I *952:C I *D sky130_fd_sc_hd__and4bb_1
*I *949:B I *D sky130_fd_sc_hd__nand3b_4
*I *958:B I *D sky130_fd_sc_hd__nor2_1
*I *1005:A I *D sky130_fd_sc_hd__or3_2
*I *1007:B I *D sky130_fd_sc_hd__and4b_1
*I *1010:B I *D sky130_fd_sc_hd__and2b_1
*I *941:X O *D sky130_fd_sc_hd__clkbuf_4
*CAP
1 *942:A 2.11176e-05
2 *963:B 0.000358559
3 *1002:S 0.000158395
4 *954:B_N 0.00020278
5 *952:C 0
6 *949:B 8.78276e-05
7 *958:B 0.000322051
8 *1005:A 3.07608e-05
9 *1007:B 0
10 *1010:B 0.00122961
11 *941:X 4.38919e-05
12 *83:167 0.00099073
13 *83:152 0.00100848
14 *83:146 0.00115072
15 *83:94 0.00193
16 *83:61 0.00164153
17 *83:30 0.00244722
18 *83:20 0.00208233
19 *83:10 0.00104322
20 *83:8 0.00104356
21 *949:B *1022:B2 0.00023165
22 *949:B *1075:A1 1.12156e-05
23 *949:B *1095:B1 0.000226303
24 *949:B *1152:A1 5.02814e-06
25 *954:B_N *1079:A2 0
26 *954:B_N *1132:A 7.09204e-05
27 *958:B *1052:A2 4.36573e-06
28 *958:B *1098:A2 0
29 *958:B *1128:A1 0.000333657
30 *958:B *108:49 3.72952e-05
31 *958:B *119:46 0.000306812
32 *958:B *150:60 0.000305651
33 *958:B *185:63 0.000173713
34 *958:B *207:18 5.0057e-05
35 *963:B *964:A 3.53662e-05
36 *963:B *981:A1 0.000640806
37 *963:B *1180:CLK 9.57611e-05
38 *963:B *93:37 0.000375343
39 *963:B *167:18 0.000666367
40 *1002:S *959:A3 8.64421e-05
41 *1005:A *1005:C 4.8854e-05
42 *1005:A *1191:A 0.000123955
43 *1010:B *987:A2 4.36573e-06
44 *1010:B *988:C 6.88421e-05
45 *1010:B *1006:A1 0.000100368
46 *1010:B *1024:B 0.00125768
47 *1010:B *1039:B1 0
48 *1010:B *1056:A2 0.000111543
49 *1010:B *1099:A 0.000816776
50 *1010:B *1194:A 7.01303e-05
51 *1010:B *149:30 0.00121723
52 *1010:B *198:24 0.000577546
53 *1010:B *227:67 0.000301749
54 *1010:B *234:148 0.000108674
55 *1010:B *236:49 0.000115854
56 *1010:B *236:73 2.41705e-05
57 *83:8 *950:B 7.9642e-06
58 *83:8 *84:14 2.85364e-05
59 *83:8 *108:10 1.61489e-05
60 *83:10 *950:B 1.7635e-05
61 *83:10 *953:C1 3.91574e-05
62 *83:10 *1148:A0 0.000228621
63 *83:10 *108:10 0.00013034
64 *83:20 *953:A1 0.000255461
65 *83:20 *953:C1 5.78621e-05
66 *83:20 *1054:A 0.000526617
67 *83:20 *1062:B1 0.000652271
68 *83:20 *1098:A1 6.99847e-05
69 *83:20 *1148:A0 5.78621e-05
70 *83:20 *110:53 5.99945e-06
71 *83:20 *120:76 1.66367e-05
72 *83:20 *146:32 0
73 *83:20 *154:18 0
74 *83:30 *972:A1 7.71493e-05
75 *83:30 *1007:C 2.05641e-05
76 *83:30 *120:76 0.000924134
77 *83:30 *155:63 0.000275849
78 *83:30 *234:148 7.5714e-05
79 *83:30 *252:54 0.00060557
80 *83:61 *1007:C 1.88656e-05
81 *83:61 *236:49 1.03503e-05
82 *83:94 *935:A 0.000219678
83 *83:94 *977:A_N 5.13769e-05
84 *83:94 *1007:A_N 1.91597e-05
85 *83:94 *1128:A1 1.92979e-05
86 *83:94 *1146:A0 8.94747e-05
87 *83:94 *1192:A 6.69608e-06
88 *83:94 *1193:A 0.000180207
89 *83:94 *1196:A 0.00147133
90 *83:94 *95:73 0.000147475
91 *83:94 *127:51 0.000575308
92 *83:94 *198:28 0.000108137
93 *83:94 *234:163 0.000157282
94 *83:94 *236:39 8.07242e-05
95 *83:146 *84:14 0.000538725
96 *83:167 *1008:A2 0
97 *954:A *83:152 4.31385e-06
98 *963:C *1002:S 6.74241e-05
99 *963:C *83:167 0.000156438
100 *1002:A1 *1002:S 0.000113669
101 *1007:D *83:94 4.66108e-05
102 *1010:A_N *1010:B 0.000448598
103 *1129:A *83:94 1.58398e-05
104 *1132:B *954:B_N 7.16988e-05
105 *1132:B *83:167 0
106 *1144:S *1002:S 8.64421e-05
107 *1158:D *1010:B 7.96362e-05
108 *1158:D *83:20 0.000132666
109 *1162:D *83:94 1.41165e-05
110 *1171:D *83:30 0.000132698
111 *1176:D *958:B 7.85898e-05
112 *1183:D *1002:S 0.00020599
113 *1183:D *83:167 0.00011774
114 *50:18 *83:94 7.13257e-05
115 *58:28 *83:167 0
116 *64:32 *83:30 0.000256314
117 *65:14 *83:146 5.42945e-05
118 *65:14 *83:152 0.000102221
119 *77:6 *83:94 4.75991e-05
120 *77:10 *83:94 0.000252626
121 *77:43 *83:30 1.49755e-05
122 *77:43 *83:61 5.01569e-05
123 *77:49 *949:B 8.7152e-06
124 *81:28 *1002:S 1.88877e-05
125 *82:135 *83:94 0.000144341
126 *82:162 *958:B 8.7152e-06
*RES
1 *941:X *83:8 4.47 
2 *83:8 *83:10 4.185 
3 *83:10 *83:20 4.04403 
4 *83:20 *83:30 5.01597 
5 *83:30 *1010:B 42.025 
6 *83:30 *83:61 3.41 
7 *83:61 *1007:B 1.6 
8 *83:61 *83:94 22.0719 
9 *83:94 *1005:A 4.74 
10 *83:94 *958:B 16.795 
11 *83:20 *949:B 5.19097 
12 *83:10 *952:C 3.6 
13 *83:8 *83:146 12.455 
14 *83:146 *83:152 6.005 
15 *83:152 *954:B_N 6.495 
16 *83:152 *83:167 7.245 
17 *83:167 *1002:S 7.5 
18 *83:167 *963:B 18.145 
19 *83:146 *942:A 1.96 
*END

*D_NET *84 0.0321747
*CONN
*I *1055:A1 I *D sky130_fd_sc_hd__o31a_1
*I *966:C I *D sky130_fd_sc_hd__and3b_1
*I *945:A2 I *D sky130_fd_sc_hd__a21oi_1
*I *1037:A2 I *D sky130_fd_sc_hd__o21ai_1
*I *1105:B I *D sky130_fd_sc_hd__and3_1
*I *991:A2 I *D sky130_fd_sc_hd__o21a_2
*I *943:C I *D sky130_fd_sc_hd__and3_1
*I *947:B I *D sky130_fd_sc_hd__xor2_1
*I *1117:C I *D sky130_fd_sc_hd__or4b_1
*I *942:X O *D sky130_fd_sc_hd__clkbuf_4
*CAP
1 *1055:A1 0.000208673
2 *966:C 3.69588e-05
3 *945:A2 0.000338703
4 *1037:A2 0.000388873
5 *1105:B 0
6 *991:A2 0
7 *943:C 7.82373e-05
8 *947:B 0.000335197
9 *1117:C 6.94376e-05
10 *942:X 0.00080858
11 *84:130 0.00133822
12 *84:89 0.000893058
13 *84:83 0.00210568
14 *84:46 0.00193782
15 *84:38 0.0015834
16 *84:32 0.00113134
17 *84:26 0.00109518
18 *84:14 0.00167455
19 *943:C *1024:A 2.28635e-05
20 *943:C *85:20 5.96623e-06
21 *945:A2 *178:71 0.000285688
22 *947:B *1024:A 0.000497026
23 *947:B *85:20 0
24 *947:B *239:50 1.91597e-05
25 *947:B *239:64 6.92772e-05
26 *966:C *1097:A2 4.66108e-05
27 *1037:A2 *1080:A 9.97517e-05
28 *1037:A2 *1105:A 2.99026e-05
29 *1037:A2 *1196:A 0.000255549
30 *1037:A2 *128:12 1.32711e-05
31 *1037:A2 *166:26 9.71141e-05
32 *1037:A2 *180:8 6.3124e-06
33 *1037:A2 *180:43 0.000147661
34 *1055:A1 *1055:A2 4.60584e-05
35 *1055:A1 *1055:A3 1.34503e-05
36 *1055:A1 *1055:B1 0.000264677
37 *1117:C *975:C 0.000109207
38 *1117:C *234:16 0
39 *84:14 *1055:B1 0.00100973
40 *84:14 *108:10 0.000369889
41 *84:26 *977:B 0
42 *84:26 *1022:B1 0.000343429
43 *84:26 *1056:C1 0
44 *84:26 *1087:A1 0
45 *84:26 *1097:A2 8.40269e-05
46 *84:26 *1098:B1 1.57902e-05
47 *84:26 *1107:A0 0
48 *84:26 *201:80 4.29758e-05
49 *84:26 *221:43 0
50 *84:26 *235:60 9.18162e-05
51 *84:26 *267:26 0.000165384
52 *84:32 *1022:B1 0.000251517
53 *84:32 *1031:B 8.87401e-05
54 *84:32 *1058:D 0.000109206
55 *84:32 *155:98 6.72344e-05
56 *84:32 *178:71 8.247e-05
57 *84:32 *201:80 0.00063167
58 *84:38 *1041:A1 0.000163961
59 *84:38 *1062:A2 8.49312e-05
60 *84:38 *1128:A0 0.000342351
61 *84:38 *155:98 0.000249376
62 *84:38 *267:26 0.000928067
63 *84:46 *975:C 2.48804e-05
64 *84:46 *1056:A2 0.00047543
65 *84:46 *1062:A3 0.000441376
66 *84:46 *198:24 4.66108e-05
67 *84:46 *198:28 2.73058e-05
68 *84:46 *234:8 8.7152e-06
69 *84:46 *234:16 0
70 *84:83 *992:B1 4.66108e-05
71 *84:83 *1003:A_N 5.82798e-05
72 *84:83 *1025:B1 2.44592e-05
73 *84:83 *1027:B 0.000464174
74 *84:83 *120:76 0.00047775
75 *84:83 *130:10 0.000146502
76 *84:83 *138:32 0.00104373
77 *84:83 *155:63 0.000251332
78 *84:83 *157:30 5.64451e-05
79 *84:83 *198:24 5.63183e-05
80 *84:83 *201:16 0.000415502
81 *84:83 *231:22 0.000549894
82 *84:83 *236:49 2.70497e-05
83 *84:83 *247:18 3.92756e-05
84 *84:83 *269:26 0.000234661
85 *84:89 *1170:CLK 5.3937e-05
86 *84:89 *85:20 0
87 *84:89 *130:10 0.000450971
88 *84:89 *138:32 0.000136271
89 *84:89 *155:22 3.13982e-05
90 *84:89 *250:64 9.93169e-05
91 *84:130 *992:B1 0.000105271
92 *84:130 *1004:A1 5.69898e-06
93 *84:130 *1050:S 0.000286212
94 *84:130 *1056:A2 0.000262185
95 *84:130 *1056:B1 0.000176315
96 *84:130 *1056:C1 0.00029854
97 *84:130 *1057:A 0.000586995
98 *84:130 *1062:A3 3.66286e-05
99 *84:130 *1105:A 1.42674e-05
100 *84:130 *89:48 0.000317781
101 *84:130 *112:30 9.47972e-06
102 *84:130 *118:63 0.000195873
103 *84:130 *206:34 5.30442e-05
104 *954:A *84:26 0
105 *966:B *84:26 2.39856e-05
106 *991:A1 *84:89 8.40213e-05
107 *991:B1 *84:83 2.86975e-05
108 *1111:S *84:89 0.000376686
109 *1117:A *1117:C 4.55864e-06
110 *1124:S *84:89 0.000141978
111 *1139:A *84:89 4.36573e-06
112 *1158:D *84:83 2.39126e-05
113 *1161:D *84:83 0.000738433
114 *1177:D *84:83 7.07002e-05
115 *49:61 *84:83 0.000552731
116 *53:16 *947:B 0
117 *53:16 *84:89 0
118 *65:14 *84:14 0.000344896
119 *83:8 *84:14 2.85364e-05
120 *83:146 *84:14 0.000538725
*RES
1 *942:X *84:14 25.715 
2 *84:14 *84:26 18.225 
3 *84:26 *84:32 11.495 
4 *84:32 *84:38 15.58 
5 *84:38 *84:46 8.165 
6 *84:46 *1117:C 4.98 
7 *84:46 *84:83 32.5335 
8 *84:83 *84:89 13.6175 
9 *84:89 *947:B 9.8025 
10 *84:89 *943:C 4.7925 
11 *84:83 *991:A2 1.6 
12 *84:38 *84:130 22.555 
13 *84:130 *1105:B 1.6 
14 *84:130 *1037:A2 12.785 
15 *84:32 *945:A2 6.895 
16 *84:26 *966:C 4.05 
17 *84:14 *1055:A1 5.515 
*END

*D_NET *85 0.0208216
*CONN
*I *946:A I *D sky130_fd_sc_hd__nor2_1
*I *944:B I *D sky130_fd_sc_hd__xor2_1
*I *943:X O *D sky130_fd_sc_hd__and3_1
*CAP
1 *946:A 0.0031157
2 *944:B 4.45545e-05
3 *943:X 0.0021772
4 *85:20 0.00533745
5 *944:B *985:C1 6.11965e-05
6 *944:B *173:32 2.34629e-05
7 *944:B *208:81 2.07103e-05
8 *946:A *946:B 0.000532126
9 *946:A *950:B 0.000217043
10 *946:A *1020:A 0.00141419
11 *946:A *1055:B1 5.27124e-05
12 *946:A *1087:A0 7.91708e-05
13 *946:A *1097:A2 0.000317081
14 *946:A *1097:B1 4.89206e-05
15 *946:A *1124:A1 3.92756e-05
16 *946:A *1148:A0 4.21127e-05
17 *946:A *88:12 0.000126132
18 *946:A *98:42 0.00047697
19 *946:A *106:57 0.000127194
20 *946:A *110:53 0.000133576
21 *946:A *116:23 0.000140027
22 *946:A *121:18 0.000120655
23 *946:A *128:38 5.92326e-05
24 *946:A *141:14 0.00068124
25 *946:A *167:38 9.80032e-06
26 *946:A *168:20 0.000420711
27 *946:A *235:60 1.8935e-05
28 *946:A *247:71 0.000641763
29 *946:A *263:18 3.83194e-05
30 *85:20 *950:B 0.000114994
31 *85:20 *1000:B1 0.000166657
32 *85:20 *1065:A 7.37253e-05
33 *85:20 *1099:B 0.000550034
34 *85:20 *95:18 0.0012876
35 *85:20 *98:42 0.000680999
36 *85:20 *155:26 0.000102093
37 *85:20 *155:133 3.34969e-05
38 *85:20 *185:20 0.000196119
39 *939:A *946:A 5.66612e-05
40 *943:C *85:20 5.96623e-06
41 *947:B *85:20 0
42 *963:A_N *946:A 0.000109551
43 *1111:S *85:20 8.58233e-05
44 *1153:A *946:A 4.26465e-05
45 *1176:D *944:B 3.92756e-05
46 *1181:D *85:20 0.000332042
47 *48:38 *85:20 7.96104e-06
48 *49:39 *85:20 0.000251878
49 *65:14 *946:A 1.13272e-05
50 *78:84 *946:A 9.02882e-05
51 *81:12 *946:A 1.07112e-05
52 *81:28 *946:A 5.43112e-05
53 *82:79 *85:20 0
54 *84:89 *85:20 0
*RES
1 *943:X *85:20 16.9568 
2 *85:20 *944:B 5.40963 
3 *85:20 *946:A 26.878 
*END

*D_NET *86 0.00288379
*CONN
*I *946:B I *D sky130_fd_sc_hd__nor2_1
*I *945:Y O *D sky130_fd_sc_hd__a21oi_1
*CAP
1 *946:B 0.000514482
2 *945:Y 0.000514482
3 *946:B *1054:B 0.000170625
4 *946:B *1056:B1 0.000272844
5 *946:B *167:38 0.000110494
6 *946:B *197:28 0.000466331
7 *946:B *218:20 4.24292e-06
8 *946:A *946:B 0.000532126
9 *82:154 *946:B 0.000298167
*RES
1 *945:Y *946:B 21.93 
*END

*D_NET *87 0.00733777
*CONN
*I *953:A1 I *D sky130_fd_sc_hd__a211o_1
*I *948:Y O *D sky130_fd_sc_hd__inv_2
*CAP
1 *953:A1 0.0016808
2 *948:Y 0.0016808
3 *953:A1 *950:B 7.73312e-05
4 *953:A1 *953:A2 8.7152e-06
5 *953:A1 *953:C1 0.000120269
6 *953:A1 *959:A3 0.00112327
7 *953:A1 *1020:A 0.000713485
8 *953:A1 *1075:A1 1.95649e-05
9 *953:A1 *1120:A0 4.11718e-05
10 *953:A1 *88:54 0
11 *953:A1 *97:22 9.76964e-06
12 *953:A1 *98:42 0.000150969
13 *953:A1 *110:53 8.33791e-05
14 *953:A1 *128:38 0.000150969
15 *953:A1 *141:14 5.63183e-05
16 *952:D *953:A1 8.8742e-05
17 *1145:A *953:A1 8.40269e-05
18 *1153:A *953:A1 0.000199495
19 *77:49 *953:A1 8.53307e-05
20 *81:28 *953:A1 0.000707907
21 *83:20 *953:A1 0.000255461
*RES
1 *948:Y *953:A1 28.6609 
*END

*D_NET *88 0.024363
*CONN
*I *953:A2 I *D sky130_fd_sc_hd__a211o_1
*I *1004:A2 I *D sky130_fd_sc_hd__a211o_1
*I *976:A2 I *D sky130_fd_sc_hd__a211o_2
*I *1008:A2 I *D sky130_fd_sc_hd__a211o_1
*I *983:A I *D sky130_fd_sc_hd__dlymetal6s2s_1
*I *949:Y O *D sky130_fd_sc_hd__nand3b_4
*CAP
1 *953:A2 0.00017407
2 *1004:A2 5.93873e-05
3 *976:A2 0.000931572
4 *1008:A2 0.00201356
5 *983:A 0.00015299
6 *949:Y 2.0132e-05
7 *88:70 0.0021335
8 *88:54 0.00204529
9 *88:12 0.00250991
10 *88:6 0.00109217
11 *953:A2 *953:B1 8.56001e-05
12 *953:A2 *1095:B1 1.7635e-05
13 *953:A2 *188:16 1.88153e-05
14 *976:A2 *976:A1 3.41176e-05
15 *976:A2 *976:B1 1.56585e-05
16 *976:A2 *988:B 0.000405651
17 *976:A2 *988:C 0
18 *976:A2 *1006:A3 1.19928e-05
19 *976:A2 *1099:A 1.17309e-05
20 *976:A2 *1194:A 0
21 *976:A2 *1195:A 8.23457e-05
22 *976:A2 *90:34 0.000304406
23 *976:A2 *206:34 0.000500316
24 *976:A2 *223:30 0.000860362
25 *983:A *93:37 0.000431767
26 *983:A *122:8 1.10085e-05
27 *983:A *167:18 0.000479
28 *1004:A2 *1004:C1 0.000255492
29 *1004:A2 *1154:A 0.000266368
30 *1008:A2 *1008:B1 5.05934e-05
31 *1008:A2 *1015:A 0
32 *1008:A2 *1015:B 1.03423e-05
33 *1008:A2 *1015:C 0.00183741
34 *1008:A2 *1079:A2 0.000102996
35 *1008:A2 *106:57 6.40571e-05
36 *1008:A2 *154:18 0
37 *1008:A2 *236:194 0.00029169
38 *88:12 *949:A_N 8.12379e-05
39 *88:12 *990:B 7.28465e-06
40 *88:12 *994:A 2.36716e-05
41 *88:12 *106:57 0.000128007
42 *88:12 *170:43 8.49936e-05
43 *88:12 *236:194 0.000286412
44 *88:54 *953:B1 1.7635e-05
45 *88:54 *1008:B1 0.000143849
46 *88:54 *1025:A1 0.000178832
47 *88:54 *1094:A1 9.4675e-06
48 *88:54 *90:84 5.59879e-06
49 *88:54 *145:75 0.000143849
50 *88:54 *170:43 6.65725e-05
51 *88:54 *173:32 0.000151831
52 *88:70 *945:A1 0.00040296
53 *88:70 *972:B2 9.90036e-05
54 *88:70 *1004:C1 0.000298431
55 *88:70 *1042:A3 7.17982e-05
56 *88:70 *1043:B 0.000626673
57 *88:70 *1154:A 0.000296755
58 *88:70 *119:46 0.000811349
59 *88:70 *174:29 0.000193128
60 *88:70 *197:28 0.000138962
61 *88:70 *218:20 0.000950188
62 *88:70 *256:22 0.000486501
63 *946:A *88:12 0.000126132
64 *953:A1 *953:A2 8.7152e-06
65 *953:A1 *88:54 0
66 *1107:S *88:54 0.00017997
67 *1153:A *953:A2 5.02814e-06
68 *1176:D *88:54 0.000646019
69 *58:28 *1008:A2 8.62298e-05
70 *64:68 *88:70 4.60466e-05
71 *77:43 *88:54 0.000146679
72 *77:49 *88:54 4.82863e-05
73 *82:12 *976:A2 3.85753e-05
74 *82:135 *88:70 1.16875e-05
75 *82:154 *88:70 3.27349e-05
76 *83:167 *1008:A2 0
*RES
1 *949:Y *88:6 1.96 
2 *88:6 *88:12 9.125 
3 *88:12 *983:A 8.55 
4 *88:12 *1008:A2 33.51 
5 *88:6 *88:54 10.2668 
6 *88:54 *88:70 34.725 
7 *88:70 *976:A2 25.205 
8 *88:70 *1004:A2 4.12 
9 *88:54 *953:A2 6.255 
*END

*D_NET *89 0.0201009
*CONN
*I *1004:B1 I *D sky130_fd_sc_hd__a211o_1
*I *951:A I *D sky130_fd_sc_hd__clkbuf_2
*I *976:B1 I *D sky130_fd_sc_hd__a211o_2
*I *950:Y O *D sky130_fd_sc_hd__nor3b_2
*CAP
1 *1004:B1 0.000153619
2 *951:A 0.000190413
3 *976:B1 0.000590484
4 *950:Y 0.00301726
5 *89:48 0.00157312
6 *89:22 0.0039631
7 *951:A *1194:A 0.000119762
8 *951:A *90:34 6.27029e-05
9 *976:B1 *988:B 0
10 *976:B1 *988:C 0.000239255
11 *976:B1 *1006:A3 4.00001e-05
12 *976:B1 *206:18 0.000619832
13 *1004:B1 *1004:A1 6.88421e-05
14 *1004:B1 *1096:A 0.000153816
15 *1004:B1 *260:40 3.6227e-05
16 *89:22 *950:A 4.7878e-05
17 *89:22 *972:B1 0.000185192
18 *89:22 *972:B2 0.000397232
19 *89:22 *981:B1 0.00171974
20 *89:22 *1009:B1 7.53239e-05
21 *89:22 *1097:A2 0.000157529
22 *89:22 *1128:A0 6.77973e-05
23 *89:22 *1193:A 0.000211395
24 *89:22 *106:95 8.03815e-05
25 *89:22 *119:46 0.000192334
26 *89:22 *204:28 0.00299945
27 *89:22 *206:34 0
28 *89:22 *223:30 0
29 *89:22 *252:54 7.0572e-05
30 *89:48 *988:C 6.13364e-05
31 *89:48 *1004:A1 0.000308729
32 *89:48 *1050:S 0.000119866
33 *89:48 *1105:A 3.82018e-05
34 *89:48 *1191:A 0.000371797
35 *89:48 *1193:A 0.000148985
36 *89:48 *1194:A 0.000369388
37 *89:48 *90:34 1.91597e-05
38 *976:A2 *976:B1 1.56585e-05
39 *1009:A1 *89:22 0.000463796
40 *1131:A *89:22 4.41639e-05
41 *1153:A *976:B1 0.000340587
42 *37:16 *89:22 1.30972e-05
43 *64:12 *89:22 0.00025873
44 *64:32 *89:22 1.03115e-05
45 *82:12 *976:B1 0.000113942
46 *82:12 *89:48 5.20661e-05
47 *84:130 *89:48 0.000317781
*RES
1 *950:Y *89:22 16.2163 
2 *89:22 *89:48 22.86 
3 *89:48 *976:B1 22.245 
4 *89:48 *951:A 4.465 
5 *89:22 *1004:B1 9.955 
*END

*D_NET *90 0.0311703
*CONN
*I *953:B1 I *D sky130_fd_sc_hd__a211o_1
*I *1008:B1 I *D sky130_fd_sc_hd__a211o_1
*I *1053:B I *D sky130_fd_sc_hd__or2_1
*I *1081:A I *D sky130_fd_sc_hd__clkbuf_1
*I *951:X O *D sky130_fd_sc_hd__clkbuf_2
*CAP
1 *953:B1 0.000295904
2 *1008:B1 0.00208466
3 *1053:B 0
4 *1081:A 0.00180413
5 *951:X 0.00235553
6 *90:84 0.00279301
7 *90:42 0.00203719
8 *90:34 0.00300103
9 *953:B1 *953:C1 1.92979e-05
10 *953:B1 *959:A1 1.08758e-05
11 *953:B1 *1022:B1 9.8029e-05
12 *953:B1 *1038:A 3.71738e-05
13 *953:B1 *1095:B1 0.000192686
14 *953:B1 *120:88 4.26154e-05
15 *1008:B1 *1015:B 0.00157137
16 *1008:B1 *1015:C 0.000868082
17 *1008:B1 *1038:B 0.000559731
18 *1008:B1 *1079:A2 0.000523589
19 *1008:B1 *1094:A1 3.14528e-05
20 *1008:B1 *141:18 0.000509349
21 *1008:B1 *146:32 0.000229894
22 *1008:B1 *168:49 0.000407838
23 *1008:B1 *173:32 7.56834e-05
24 *1081:A *1026:A0 0.000191955
25 *1081:A *1026:S 2.39856e-05
26 *1081:A *1030:A 0.000266859
27 *1081:A *1035:A2_N 0.000514111
28 *1081:A *1041:A0 0.000146688
29 *1081:A *1067:A 0.000325299
30 *1081:A *1080:B 0.000290386
31 *1081:A *103:32 0.000319426
32 *1081:A *120:26 0.000125948
33 *1081:A *175:12 0.000122003
34 *1081:A *185:20 0.000533168
35 *1081:A *205:22 0.000159326
36 *90:34 *972:A1 7.59468e-05
37 *90:34 *987:A2 0.000134725
38 *90:34 *988:C 5.05716e-06
39 *90:34 *992:B1 0.000169509
40 *90:34 *1080:B 0.000164375
41 *90:34 *1096:A 0.00029854
42 *90:34 *1194:A 0.000451069
43 *90:34 *100:65 0.000134795
44 *90:34 *125:6 2.86975e-05
45 *90:34 *206:34 7.27859e-05
46 *90:34 *227:67 0.000152762
47 *90:34 *234:91 3.45952e-05
48 *90:34 *236:49 0.000225463
49 *90:42 *965:A 0.000374734
50 *90:42 *1009:B1 0.00015806
51 *90:42 *1035:A2_N 0.000678926
52 *90:42 *1178:CLK 8.35106e-05
53 *90:42 *103:32 3.3485e-05
54 *90:42 *234:163 0.000119866
55 *90:84 *1035:B1 4.85118e-05
56 *90:84 *1035:B2 5.01451e-05
57 *90:84 *1038:B 0.000135229
58 *90:84 *119:46 0.000136868
59 *90:84 *227:67 0
60 *90:84 *251:16 5.06604e-05
61 *90:84 *257:14 3.26941e-05
62 *951:A *90:34 6.27029e-05
63 *953:A2 *953:B1 8.56001e-05
64 *963:A_N *1008:B1 0.00143404
65 *976:A2 *90:34 0.000304406
66 *1008:A2 *1008:B1 5.05934e-05
67 *1009:A1 *90:42 4.66605e-05
68 *1037:A1 *90:34 0.000270741
69 *1111:S *1081:A 5.39426e-05
70 *1147:A *90:34 0.000422065
71 *1161:D *1081:A 3.97095e-06
72 *1177:D *1081:A 1.19407e-05
73 *1177:D *90:34 2.22315e-05
74 *1185:A *1081:A 0.000294468
75 *32:60 *1081:A 5.49155e-05
76 *53:16 *1081:A 0.000262188
77 *57:36 *90:34 3.43556e-05
78 *64:32 *1081:A 0.000228694
79 *71:14 *90:34 0.00020855
80 *77:43 *90:34 0.000101456
81 *77:43 *90:84 7.32056e-05
82 *77:117 *90:34 0.000408684
83 *82:18 *90:34 0.000129336
84 *88:54 *953:B1 1.7635e-05
85 *88:54 *1008:B1 0.000143849
86 *88:54 *90:84 5.59879e-06
87 *89:48 *90:34 1.91597e-05
*RES
1 *951:X *90:34 43.3826 
2 *90:34 *90:42 10.16 
3 *90:42 *1081:A 24.0089 
4 *90:42 *1053:B 1.6 
5 *90:34 *90:84 7.3125 
6 *90:84 *1008:B1 26.7217 
7 *90:84 *953:B1 9.4425 
*END

*D_NET *91 0.0032687
*CONN
*I *953:C1 I *D sky130_fd_sc_hd__a211o_1
*I *952:X O *D sky130_fd_sc_hd__and4bb_1
*CAP
1 *953:C1 0.000690324
2 *952:X 0.000690324
3 *953:C1 *1058:B 0.000189744
4 *953:C1 *1078:A3 5.93727e-05
5 *953:C1 *1095:B1 9.2618e-05
6 *953:C1 *1097:B2 5.0794e-06
7 *953:C1 *1148:A0 0.000144389
8 *953:C1 *97:22 0
9 *953:C1 *108:10 0.000329705
10 *953:C1 *108:18 0.000122263
11 *953:C1 *108:49 0.000159404
12 *953:C1 *120:88 1.87784e-05
13 *953:C1 *208:81 0.000156758
14 *953:C1 *267:26 0.000156758
15 *953:A1 *953:C1 0.000120269
16 *953:B1 *953:C1 1.92979e-05
17 *1153:A *953:C1 0.000103785
18 *81:28 *953:C1 0.000112807
19 *83:10 *953:C1 3.91574e-05
20 *83:20 *953:C1 5.78621e-05
*RES
1 *952:X *953:C1 19.428 
*END

*D_NET *92 0.00162288
*CONN
*I *959:A1 I *D sky130_fd_sc_hd__a31o_2
*I *953:X O *D sky130_fd_sc_hd__a211o_1
*CAP
1 *959:A1 0.000455642
2 *953:X 0.000455642
3 *959:A1 *959:B1 4.78726e-05
4 *959:A1 *965:A 9.04285e-05
5 *959:A1 *1022:B1 2.35892e-05
6 *959:A1 *1022:B2 1.88602e-05
7 *959:A1 *1055:A2 0.000156436
8 *959:A1 *1058:C 0.000118081
9 *959:A1 *1097:B2 3.80608e-05
10 *959:A1 *120:76 5.59544e-05
11 *959:A1 *161:12 7.9642e-06
12 *959:A1 *170:43 0.000118081
13 *959:A1 *261:14 2.53892e-05
14 *953:B1 *959:A1 1.08758e-05
*RES
1 *953:X *959:A1 14.28 
*END

*D_NET *93 0.0156134
*CONN
*I *959:A2 I *D sky130_fd_sc_hd__a31o_2
*I *1025:A1 I *D sky130_fd_sc_hd__a31o_1
*I *981:A1 I *D sky130_fd_sc_hd__a31oi_4
*I *954:X O *D sky130_fd_sc_hd__or2b_2
*CAP
1 *959:A2 0.000149125
2 *1025:A1 0.00126162
3 *981:A1 0.00141687
4 *954:X 0.000398775
5 *93:37 0.00186104
6 *93:12 0.00226594
7 *959:A2 *959:A3 0.00015639
8 *959:A2 *98:72 1.19928e-05
9 *981:A1 *981:B1 0
10 *981:A1 *1008:A1 0
11 *981:A1 *1079:A2 0.00071434
12 *981:A1 *1124:A1 0.000110612
13 *981:A1 *249:33 8.93069e-05
14 *981:A1 *252:54 0
15 *981:A1 *252:56 0.000119166
16 *981:A1 *255:83 0.000199795
17 *981:A1 *265:16 3.64998e-06
18 *1025:A1 *984:A 8.00676e-05
19 *1025:A1 *1003:C 5.48747e-05
20 *1025:A1 *1011:A2 0.000113397
21 *1025:A1 *1025:A2 4.71087e-05
22 *1025:A1 *1025:A3 5.19006e-06
23 *1025:A1 *1025:B1 3.76132e-05
24 *1025:A1 *1072:B 8.59135e-05
25 *1025:A1 *98:42 4.66474e-05
26 *1025:A1 *155:63 3.69766e-05
27 *1025:A1 *171:40 0.000190092
28 *1025:A1 *191:124 4.98216e-05
29 *1025:A1 *202:10 0.000148204
30 *1025:A1 *248:23 8.77472e-05
31 *1025:A1 *258:24 8.7152e-06
32 *93:12 *985:C1 0.000150642
33 *93:12 *1079:A2 0.000597382
34 *93:12 *1132:A 1.34618e-05
35 *93:37 *950:B 0.000811188
36 *93:37 *1079:A2 3.6355e-05
37 *93:37 *1144:A0 0.000159998
38 *93:37 *98:42 0.000106377
39 *93:37 *167:18 0.000227224
40 *963:B *981:A1 0.000640806
41 *963:B *93:37 0.000375343
42 *983:A *93:37 0.000431767
43 *1107:S *1025:A1 0.000252693
44 *1107:S *93:37 4.65941e-05
45 *1151:A *1025:A1 2.46837e-05
46 *1183:RESET_B *981:A1 0
47 *31:28 *1025:A1 0.000519895
48 *49:61 *1025:A1 9.48791e-05
49 *58:28 *981:A1 0.000443452
50 *71:43 *1025:A1 7.77689e-05
51 *77:43 *1025:A1 0.000633394
52 *77:55 *93:37 3.96653e-05
53 *88:54 *1025:A1 0.000178832
*RES
1 *954:X *93:12 13.55 
2 *93:12 *981:A1 34.34 
3 *93:12 *93:37 16.025 
4 *93:37 *1025:A1 33.145 
5 *93:37 *959:A2 5.43 
*END

*D_NET *94 0.0139294
*CONN
*I *956:A I *D sky130_fd_sc_hd__clkbuf_2
*I *955:X O *D sky130_fd_sc_hd__and2b_1
*CAP
1 *956:A 0.00490333
2 *955:X 0.00490333
3 *956:A *981:A2 1.22801e-05
4 *956:A *1016:B2 0.000145755
5 *956:A *1041:A0 2.44346e-05
6 *956:A *1044:A 6.35329e-05
7 *956:A *1103:A1 0.000333591
8 *956:A *1136:A 0.000871416
9 *956:A *1194:A 1.02564e-05
10 *956:A *95:18 9.48251e-05
11 *956:A *120:26 1.90963e-05
12 *956:A *169:16 0
13 *956:A *187:24 0.00012406
14 *956:A *265:16 2.26234e-05
15 *939:A *956:A 2.07171e-05
16 *1163:D *956:A 0.000211779
17 *1181:D *956:A 4.73375e-06
18 *1183:RESET_B *956:A 9.5799e-06
19 *28:24 *956:A 0
20 *53:16 *956:A 0.00213639
21 *67:8 *956:A 1.76876e-05
*RES
1 *955:X *956:A 49.4489 
*END

*D_NET *95 0.032227
*CONN
*I *957:B I *D sky130_fd_sc_hd__nand2_1
*I *972:A2 I *D sky130_fd_sc_hd__o221a_1
*I *1097:A2 I *D sky130_fd_sc_hd__a221o_1
*I *970:B I *D sky130_fd_sc_hd__nor2_2
*I *956:X O *D sky130_fd_sc_hd__clkbuf_2
*CAP
1 *957:B 0.000601215
2 *972:A2 0.000191596
3 *1097:A2 0.00189934
4 *970:B 0.000664761
5 *956:X 0.00158559
6 *95:73 0.0039284
7 *95:53 0.00360994
8 *95:18 0.00342162
9 *957:B *957:A 5.60381e-05
10 *957:B *1016:A2 3.7996e-05
11 *957:B *1194:A 0.000383935
12 *957:B *149:30 7.79767e-06
13 *957:B *236:100 0.000180982
14 *970:B *1016:A2 0.000217882
15 *970:B *1024:A 1.7635e-05
16 *970:B *1194:A 0.00113294
17 *970:B *152:24 0.000159625
18 *970:B *169:16 4.61701e-06
19 *972:A2 *972:A1 0.000511557
20 *972:A2 *972:B2 0.00015639
21 *972:A2 *972:C1 0.00016432
22 *972:A2 *234:163 3.43539e-05
23 *1097:A2 *967:A 8.49205e-05
24 *1097:A2 *972:B1 0.000149904
25 *1097:A2 *972:C1 1.88602e-05
26 *1097:A2 *1022:B1 4.09497e-05
27 *1097:A2 *1043:B 0.000287955
28 *1097:A2 *1056:A1 2.05571e-05
29 *1097:A2 *1062:B1 0
30 *1097:A2 *1093:B1 3.45551e-05
31 *1097:A2 *1097:A1 0.000144244
32 *1097:A2 *1098:B1 0.000134178
33 *1097:A2 *121:18 9.22816e-06
34 *1097:A2 *128:38 2.23111e-05
35 *1097:A2 *168:20 9.85352e-05
36 *1097:A2 *207:18 9.4053e-06
37 *1097:A2 *267:26 7.97096e-05
38 *95:18 *1026:A1 0.000148586
39 *95:18 *1041:A0 2.87472e-05
40 *95:18 *1065:A 1.40231e-05
41 *95:18 *1065:B 3.92756e-05
42 *95:18 *1076:A1 2.63393e-05
43 *95:18 *98:42 0.000110767
44 *95:18 *120:26 0.000362996
45 *95:18 *161:32 7.62956e-05
46 *95:18 *185:20 0.00141838
47 *95:18 *204:28 0.000267212
48 *95:18 *210:28 4.01358e-05
49 *95:18 *233:41 4.68464e-05
50 *95:18 *265:16 9.26907e-06
51 *95:53 *1194:A 0.000804803
52 *95:53 *115:14 6.57653e-06
53 *95:53 *155:34 0.000336376
54 *95:53 *185:20 3.92756e-05
55 *95:53 *247:18 1.7635e-05
56 *95:73 *935:A 0.00018955
57 *95:73 *1006:A1 0.000263753
58 *95:73 *1009:A2 1.51394e-05
59 *95:73 *1025:A3 0
60 *95:73 *1041:A1 0.000323484
61 *95:73 *1066:A 0.000439695
62 *95:73 *1072:B 0.000123499
63 *95:73 *178:18 0.000196009
64 *95:73 *227:67 0.000151673
65 *95:73 *234:163 9.7523e-05
66 *95:73 *236:73 0.000645536
67 *95:73 *269:26 0.00069596
68 *946:A *1097:A2 0.000317081
69 *956:A *95:18 9.48251e-05
70 *966:A_N *1097:A2 8.40213e-05
71 *966:B *1097:A2 1.03323e-05
72 *966:C *1097:A2 4.66108e-05
73 *1009:A1 *95:73 4.61701e-06
74 *1118:A *957:B 5.20961e-05
75 *1123:A *957:B 8.4841e-05
76 *1153:A *1097:A2 0
77 *1160:D *95:18 3.92756e-05
78 *1163:D *957:B 9.16808e-05
79 *1170:D *95:53 0.000487508
80 *1178:D *95:73 0.000191335
81 *1185:A *95:18 0.000658816
82 *48:38 *957:B 0.000306651
83 *48:38 *970:B 0.000245206
84 *48:38 *95:53 0.000565344
85 *64:32 *95:73 0.000230896
86 *83:94 *95:73 0.000147475
87 *84:26 *1097:A2 8.40269e-05
88 *85:20 *95:18 0.0012876
89 *89:22 *1097:A2 0.000157529
*RES
1 *956:X *95:18 10.4055 
2 *95:18 *970:B 7.90263 
3 *95:18 *95:53 16.8746 
4 *95:53 *95:73 19.3189 
5 *95:73 *1097:A2 17.9038 
6 *95:73 *972:A2 7.36 
7 *95:53 *957:B 9.44383 
*END

*D_NET *96 0.015915
*CONN
*I *959:A3 I *D sky130_fd_sc_hd__a31o_2
*I *957:Y O *D sky130_fd_sc_hd__nand2_1
*CAP
1 *959:A3 0.0013495
2 *957:Y 0.00208499
3 *96:28 0.00343448
4 *959:A3 *948:A 9.12494e-06
5 *959:A3 *985:B1 9.387e-06
6 *959:A3 *985:C1 0.000128583
7 *959:A3 *1002:A0 8.23457e-05
8 *959:A3 *1035:B1 0.000473134
9 *959:A3 *1094:A1 1.7635e-05
10 *959:A3 *1094:A2 9.93728e-05
11 *959:A3 *1120:A0 0.0001947
12 *959:A3 *1173:CLK 2.62779e-05
13 *959:A3 *98:42 4.66108e-05
14 *959:A3 *98:72 4.21973e-05
15 *959:A3 *123:22 0.000104079
16 *959:A3 *141:14 0.000134511
17 *959:A3 *174:112 0.000316765
18 *959:A3 *175:12 1.92979e-05
19 *959:A3 *255:83 0.000592418
20 *959:A3 *270:28 0.000168789
21 *96:28 *1017:B 0.0007573
22 *96:28 *1076:A2 0.000179006
23 *96:28 *115:14 0.00085252
24 *96:28 *116:98 4.76779e-05
25 *96:28 *126:22 9.61521e-05
26 *96:28 *205:24 0
27 *96:28 *234:18 6.59891e-05
28 *96:28 *236:100 6.59891e-05
29 *96:28 *255:20 0.000287977
30 *953:A1 *959:A3 0.00112327
31 *959:A2 *959:A3 0.00015639
32 *991:B1 *96:28 0.00013202
33 *1002:S *959:A3 8.64421e-05
34 *1125:A *96:28 4.66108e-05
35 *1130:A *959:A3 2.55345e-05
36 *1130:A *96:28 0.000298833
37 *1130:C *959:A3 0.00010408
38 *1130:C *96:28 0
39 *1137:A *959:A3 0.00026538
40 *1144:S *959:A3 0.000113202
41 *1163:D *96:28 8.02006e-05
42 *1170:D *96:28 0.00019468
43 *1173:D *96:28 0.000719001
44 *1180:D *959:A3 0.00046165
45 *1184:D *959:A3 0.000149914
46 *37:16 *959:A3 2.17931e-05
47 *71:43 *959:A3 0.000202582
48 *71:47 *959:A3 4.66108e-05
*RES
1 *957:Y *96:28 47.6375 
2 *96:28 *959:A3 40.6125 
*END

*D_NET *97 0.0155251
*CONN
*I *980:A I *D sky130_fd_sc_hd__or2_2
*I *1142:C I *D sky130_fd_sc_hd__and3_1
*I *959:B1 I *D sky130_fd_sc_hd__a31o_2
*I *958:Y O *D sky130_fd_sc_hd__nor2_1
*CAP
1 *980:A 0.000565199
2 *1142:C 0.00229771
3 *959:B1 8.10681e-05
4 *958:Y 0
5 *97:22 0.00398512
6 *97:4 0.00217154
7 *959:B1 *965:A 0.000172697
8 *959:B1 *1055:A2 6.18118e-05
9 *980:A *1098:A2 0.000202652
10 *980:A *150:60 8.46818e-05
11 *980:A *185:63 0
12 *980:A *188:16 8.35157e-05
13 *1142:C *965:A 0.000163269
14 *1142:C *1015:A 1.81185e-05
15 *1142:C *1055:A2 0.000169842
16 *1142:C *1075:A2 6.84448e-05
17 *1142:C *1089:A0 2.3234e-05
18 *1142:C *167:38 0.000101198
19 *1142:C *174:57 0.000168065
20 *1142:C *270:28 6.90254e-05
21 *97:22 *982:A 0.000377039
22 *97:22 *1054:B 0.000430008
23 *97:22 *1078:A3 3.01712e-05
24 *97:22 *1097:B2 9.01621e-05
25 *97:22 *1097:C1 0.00019391
26 *97:22 *1128:A1 0.000245945
27 *97:22 *1144:A0 4.28819e-05
28 *97:22 *1148:A0 3.87762e-05
29 *97:22 *98:79 0.00012333
30 *97:22 *168:20 0.000633903
31 *97:22 *207:18 3.68695e-05
32 *953:A1 *97:22 9.76964e-06
33 *953:C1 *97:22 0
34 *958:A *980:A 1.41165e-05
35 *959:A1 *959:B1 4.78726e-05
36 *1142:A *1142:C 0.000447835
37 *1149:A *1142:C 0.0018601
38 *1153:A *97:22 3.59531e-06
39 *1180:D *1142:C 0.000314076
40 *82:154 *980:A 2.68464e-05
41 *82:162 *97:22 7.06865e-05
*RES
1 *958:Y *97:4 1.6 
2 *97:4 *97:22 33.655 
3 *97:22 *959:B1 5.745 
4 *97:22 *1142:C 41.5375 
5 *97:4 *980:A 13.385 
*END

*D_NET *98 0.0174476
*CONN
*I *1042:A1 I *D sky130_fd_sc_hd__a31o_1
*I *982:A I *D sky130_fd_sc_hd__xnor2_2
*I *1058:A I *D sky130_fd_sc_hd__and4_1
*I *960:A I *D sky130_fd_sc_hd__buf_1
*I *1028:A1 I *D sky130_fd_sc_hd__a211o_1
*I *959:X O *D sky130_fd_sc_hd__a31o_2
*CAP
1 *1042:A1 0.00024285
2 *982:A 0.000321596
3 *1058:A 0
4 *960:A 0
5 *1028:A1 0.000404447
6 *959:X 0
7 *98:79 0.00071123
8 *98:72 0.000276639
9 *98:42 0.00254946
10 *98:4 0.00227487
11 *982:A *977:A_N 0.000374607
12 *982:A *982:B 0.000401196
13 *982:A *1098:B1 5.69248e-06
14 *982:A *1128:A1 0.000155601
15 *982:A *197:28 0.000117673
16 *982:A *201:80 1.91597e-05
17 *982:A *263:18 0.000121659
18 *1028:A1 *981:A2 0.000639551
19 *1028:A1 *1026:A0 3.64998e-06
20 *1028:A1 *1028:B1 2.01924e-05
21 *1028:A1 *1028:C1 5.58524e-05
22 *1028:A1 *1067:A 0.000516383
23 *1028:A1 *1079:A1 0
24 *1028:A1 *1079:C1 0.000226972
25 *1028:A1 *1080:B 8.10849e-05
26 *1028:A1 *1111:A0 6.41407e-05
27 *1028:A1 *120:26 5.63183e-05
28 *1028:A1 *120:39 4.77807e-05
29 *1028:A1 *155:143 3.59784e-05
30 *1042:A1 *1031:B 7.9642e-06
31 *1042:A1 *1058:D 0.000105678
32 *1042:A1 *1078:A3 0.000130328
33 *1042:A1 *1095:A2 0
34 *1042:A1 *106:57 5.21426e-05
35 *1042:A1 *120:88 8.52883e-05
36 *1042:A1 *256:22 2.57422e-05
37 *98:42 *984:A 0.000187391
38 *98:42 *1014:B 6.94004e-05
39 *98:42 *1026:A0 9.43385e-05
40 *98:42 *1062:B1 0.000566521
41 *98:42 *1079:C1 0.00010837
42 *98:42 *1099:B 0.0014111
43 *98:42 *1124:A1 3.87852e-05
44 *98:42 *110:53 0.000366786
45 *98:42 *128:38 8.31073e-05
46 *98:42 *167:18 9.73275e-05
47 *98:42 *167:38 2.38557e-05
48 *98:42 *204:28 0.000107452
49 *98:42 *270:28 7.73646e-05
50 *98:72 *1058:C 0.000145654
51 *98:79 *1058:B 4.66108e-05
52 *98:79 *1058:C 3.83194e-05
53 *98:79 *1058:D 4.30166e-05
54 *98:79 *1097:B2 9.47972e-06
55 *98:79 *197:28 0.000233202
56 *946:A *98:42 0.00047697
57 *953:A1 *98:42 0.000150969
58 *959:A2 *98:72 1.19928e-05
59 *959:A3 *98:42 4.66108e-05
60 *959:A3 *98:72 4.21973e-05
61 *1025:A1 *98:42 4.66474e-05
62 *1107:S *98:42 2.77704e-05
63 *1153:A *98:42 2.16833e-05
64 *1153:A *98:72 0.00039353
65 *1153:A *98:79 7.66388e-05
66 *1183:D *98:42 0.000857529
67 *71:43 *98:42 1.67131e-05
68 *85:20 *98:42 0.000680999
69 *93:37 *98:42 0.000106377
70 *95:18 *98:42 0.000110767
71 *97:22 *982:A 0.000377039
72 *97:22 *98:79 0.00012333
*RES
1 *959:X *98:4 1.6 
2 *98:4 *98:42 18.4179 
3 *98:42 *1028:A1 17.285 
4 *98:42 *960:A 1.6 
5 *98:4 *98:72 3.9 
6 *98:72 *1058:A 1.6 
7 *98:72 *98:79 4.245 
8 *98:79 *982:A 15.35 
9 *98:79 *1042:A1 10.325 
*END

*D_NET *99 0.0138261
*CONN
*I *961:A I *D sky130_fd_sc_hd__dlymetal6s2s_1
*I *1031:A I *D sky130_fd_sc_hd__or2_1
*I *1027:A I *D sky130_fd_sc_hd__and2_1
*I *960:X O *D sky130_fd_sc_hd__buf_1
*CAP
1 *961:A 0.000304352
2 *1031:A 0.000308561
3 *1027:A 0.00117099
4 *960:X 0.000681065
5 *99:43 0.000996076
6 *99:8 0.00223522
7 *961:A *1075:A1 0.000625367
8 *961:A *1158:CLK 0.000665837
9 *961:A *104:10 2.49909e-05
10 *1027:A *1027:B 0.000819173
11 *1027:A *1085:A0 0.000238691
12 *1027:A *1085:S 2.0656e-05
13 *1027:A *120:76 0.000132169
14 *1027:A *126:10 1.7635e-05
15 *1027:A *126:22 0.00121373
16 *1027:A *174:83 2.31456e-05
17 *1027:A *201:33 0.00011178
18 *1027:A *205:24 0
19 *1027:A *234:112 0.000145093
20 *1027:A *258:24 9.67097e-05
21 *1031:A *1049:A 7.44125e-05
22 *1031:A *161:32 0.000414756
23 *1031:A *161:68 0.000181072
24 *1031:A *170:8 4.66108e-05
25 *1031:A *256:22 0.000316398
26 *99:8 *1026:A0 0.000434287
27 *99:8 *236:39 0.000516263
28 *99:43 *1035:A1_N 1.88656e-05
29 *99:43 *1075:A1 0.000349157
30 *99:43 *1085:A0 0.000402194
31 *99:43 *1158:CLK 8.7152e-06
32 *99:43 *129:28 1.08384e-05
33 *99:43 *202:14 8.23457e-05
34 *99:43 *234:112 0.000639238
35 *99:43 *234:121 0.000168801
36 *99:43 *237:53 8.35106e-05
37 *1159:D *1031:A 7.0873e-05
38 *1170:D *1027:A 0.000150824
39 *49:61 *1027:A 2.56618e-05
*RES
1 *960:X *99:8 14.4 
2 *99:8 *1027:A 30.405 
3 *99:8 *99:43 14.95 
4 *99:43 *1031:A 12.33 
5 *99:43 *961:A 12.06 
*END

*D_NET *100 0.023817
*CONN
*I *962:A I *D sky130_fd_sc_hd__buf_1
*I *1050:S I *D sky130_fd_sc_hd__mux2_1
*I *995:A I *D sky130_fd_sc_hd__buf_1
*I *961:X O *D sky130_fd_sc_hd__dlymetal6s2s_1
*CAP
1 *962:A 0
2 *1050:S 0.000493025
3 *995:A 0.000974083
4 *961:X 0.00210829
5 *100:65 0.00220137
6 *100:32 0.00479072
7 *995:A *970:A 0.000178683
8 *995:A *981:A2 0.000437318
9 *995:A *992:B1 2.43541e-05
10 *995:A *1034:A2 0.00104644
11 *995:A *1103:A1 5.92535e-05
12 *995:A *1124:A0 0.000105239
13 *1050:S *967:A 1.42965e-05
14 *1050:S *988:A 4.78726e-05
15 *1050:S *1050:A0 8.31583e-05
16 *1050:S *1050:A1 4.66108e-05
17 *1050:S *1080:B 1.7635e-05
18 *1050:S *1105:A 0.000125813
19 *1050:S *1193:A 0.000342562
20 *1050:S *118:63 0.00021396
21 *1050:S *135:10 8.23457e-05
22 *1050:S *180:8 3.45952e-05
23 *100:32 *990:A 0
24 *100:32 *1035:A1_N 5.18735e-06
25 *100:32 *1048:A 7.53186e-05
26 *100:32 *1140:A 4.12775e-05
27 *100:32 *104:10 0.000126529
28 *100:32 *106:57 0.000659323
29 *100:32 *110:53 9.67062e-05
30 *100:32 *116:82 0.000724438
31 *100:32 *129:28 0.00017783
32 *100:32 *154:18 0.00130832
33 *100:32 *170:43 5.21706e-05
34 *100:65 *957:A 4.21127e-05
35 *100:65 *981:A2 0.000551608
36 *100:65 *992:B1 0.000107136
37 *100:65 *1003:A_N 2.0198e-05
38 *100:65 *1006:A1 1.66065e-05
39 *100:65 *1017:B 0.000212015
40 *100:65 *1059:A 0.000117278
41 *100:65 *1117:D_N 1.54426e-06
42 *100:65 *157:30 3.95615e-05
43 *100:65 *236:73 2.08692e-05
44 seg[2] *1050:S 1.37596e-05
45 *937:A *100:65 2.20023e-05
46 *1116:A *100:32 0.000121409
47 *1120:S *995:A 0.000634067
48 *1137:A *100:32 1.66925e-05
49 *1158:D *100:65 0.000163688
50 *1171:D *100:32 8.10123e-05
51 *1177:D *100:65 0.00134572
52 *1180:D *100:32 0.000125403
53 *1180:D *100:65 0.000229729
54 *1183:D *100:32 0
55 *48:38 *1050:S 1.88602e-05
56 *57:36 *100:65 0.000620474
57 *57:50 *995:A 0.00104982
58 *57:50 *100:65 0.000446957
59 *64:68 *100:65 0.000117278
60 *81:72 *100:65 9.874e-05
61 *81:92 *100:65 0.000101665
62 *82:30 *1050:S 6.61627e-05
63 *82:54 *100:65 0.000179061
64 *84:130 *1050:S 0.000286212
65 *89:48 *1050:S 0.000119866
66 *90:34 *100:65 0.000134795
*RES
1 *961:X *100:32 29.236 
2 *100:32 *995:A 9.1199 
3 *100:32 *100:65 12.0667 
4 *100:65 *1050:S 18.065 
5 *100:65 *962:A 1.6 
*END

*D_NET *101 0.0200881
*CONN
*I *974:A I *D sky130_fd_sc_hd__nor2_2
*I *1023:S I *D sky130_fd_sc_hd__mux2_1
*I *962:X O *D sky130_fd_sc_hd__buf_1
*CAP
1 *974:A 0
2 *1023:S 0.0042065
3 *962:X 0.000184169
4 *101:8 0.00439067
5 *1023:S *992:A1 2.01169e-05
6 *1023:S *999:A2 0.000781981
7 *1023:S *1000:B1 0.00178916
8 *1023:S *1006:A2 0.000140754
9 *1023:S *1040:A0 0.000949404
10 *1023:S *1059:A 0.000143539
11 *1023:S *1080:B 0
12 *1023:S *1103:A0 3.92756e-05
13 *1023:S *1103:A1 0.000222515
14 *1023:S *1124:A1 1.233e-05
15 *1023:S *113:16 0.000261367
16 *1023:S *173:32 0.000885228
17 *1023:S *229:22 0.000163612
18 *1023:S *239:8 0.000264161
19 *1023:S *263:50 8.48404e-05
20 *1023:S *269:26 0.00019175
21 *1023:S *271:24 0.000123275
22 *101:8 *1006:A2 0.000468209
23 *101:8 *1059:A 0.000480393
24 *939:A *1023:S 0
25 *1181:D *1023:S 0.000219572
26 *1190:A *1023:S 4.66108e-05
27 *32:60 *1023:S 0.00150785
28 *64:68 *1023:S 0.00191473
29 *64:88 *1023:S 0.000293578
30 *70:32 *1023:S 0.000302482
*RES
1 *962:X *101:8 9.57 
2 *101:8 *1023:S 34.9082 
3 *101:8 *974:A 3.6 
*END

*D_NET *102 0.00598956
*CONN
*I *964:A I *D sky130_fd_sc_hd__buf_1
*I *963:X O *D sky130_fd_sc_hd__and3b_1
*CAP
1 *964:A 0.00145712
2 *963:X 0.00145712
3 *964:A *981:A2 5.88876e-05
4 *964:A *985:B1 9.12797e-05
5 *964:A *985:C1 4.77045e-05
6 *964:A *994:A 3.47763e-05
7 *964:A *998:A 0.000183622
8 *964:A *1022:B2 1.7635e-05
9 *964:A *1026:A1 9.73612e-05
10 *964:A *1080:B 7.56599e-05
11 *964:A *1180:CLK 0
12 *964:A *104:14 1.83756e-05
13 *964:A *106:95 0.000584513
14 *964:A *124:36 1.56428e-05
15 *964:A *155:143 6.32598e-05
16 *964:A *167:18 0
17 *964:A *185:63 0
18 *964:A *233:143 0
19 *964:A *233:176 0
20 *964:A *236:33 2.05571e-05
21 *964:A *237:18 0.000150386
22 *964:A *255:83 6.98629e-05
23 *964:A *258:24 0.00088552
24 *963:B *964:A 3.53662e-05
25 *1130:A *964:A 5.97984e-05
26 *1130:C *964:A 0.000268313
27 *1141:A *964:A 0.000296796
*RES
1 *963:X *964:A 38.73 
*END

*D_NET *103 0.00801412
*CONN
*I *965:A I *D sky130_fd_sc_hd__clkbuf_2
*I *1053:A I *D sky130_fd_sc_hd__or2_1
*I *964:X O *D sky130_fd_sc_hd__buf_1
*CAP
1 *965:A 0.000888714
2 *1053:A 0
3 *964:X 0.000729112
4 *103:32 0.00161783
5 *965:A *1011:A2 1.05984e-05
6 *965:A *1015:A 0.000333419
7 *965:A *1032:B1 1.90887e-05
8 *965:A *1056:A2 0.000166658
9 *965:A *1097:B2 0.000199092
10 *965:A *104:10 2.39856e-05
11 *965:A *119:46 0.000355409
12 *965:A *120:76 1.88656e-05
13 *965:A *123:22 3.36118e-05
14 *965:A *145:75 0.000528684
15 *965:A *161:12 8.70354e-05
16 *965:A *167:38 0.00022707
17 *965:A *171:20 0.000219706
18 *965:A *174:73 1.84771e-05
19 *965:A *261:14 2.53191e-06
20 *103:32 *987:A1 8.41307e-05
21 *103:32 *987:A2 6.42917e-05
22 *103:32 *1026:S 0.00027391
23 *103:32 *174:112 6.61627e-05
24 *103:32 *252:54 9.80528e-05
25 *103:32 *258:24 4.89295e-05
26 *103:32 *270:28 6.74241e-05
27 *952:D *965:A 0.000300325
28 *959:A1 *965:A 9.04285e-05
29 *959:B1 *965:A 0.000172697
30 *1081:A *103:32 0.000319426
31 *1142:C *965:A 0.000163269
32 *1185:A *103:32 1.7635e-05
33 *32:60 *103:32 7.8614e-05
34 *49:61 *965:A 2.01504e-05
35 *49:61 *103:32 0.000120407
36 *64:32 *103:32 0.000140164
37 *90:42 *965:A 0.000374734
38 *90:42 *103:32 3.3485e-05
*RES
1 *964:X *103:32 24.195 
2 *103:32 *1053:A 1.6 
3 *103:32 *965:A 28.445 
*END

*D_NET *104 0.0136743
*CONN
*I *971:A I *D sky130_fd_sc_hd__nor2_2
*I *968:A I *D sky130_fd_sc_hd__or2_1
*I *970:A I *D sky130_fd_sc_hd__nor2_2
*I *965:X O *D sky130_fd_sc_hd__clkbuf_2
*CAP
1 *971:A 0
2 *968:A 0.00023606
3 *970:A 0.001592
4 *965:X 0.00186916
5 *104:14 0.00198925
6 *104:10 0.00203035
7 *968:A *968:B 8.23457e-05
8 *968:A *1014:B 0.000121043
9 *968:A *1060:A 0
10 *968:A *1061:B1 4.7167e-05
11 *968:A *271:43 7.18107e-06
12 *970:A *1023:A1 3.29528e-05
13 *970:A *1030:A 0.00013002
14 *970:A *1034:A2 2.46911e-05
15 *970:A *1060:A 0
16 *970:A *1067:B 0.000245177
17 *970:A *1076:A2 0.000230435
18 *970:A *1079:B1 0.000133522
19 *970:A *1079:C1 1.26626e-05
20 *970:A *1095:B1 8.82357e-05
21 *970:A *1101:A_N 0.000373795
22 *970:A *1103:A1 0.000154609
23 *970:A *1124:A0 6.61748e-05
24 *970:A *1154:A 0.000165307
25 *970:A *152:24 9.75499e-05
26 *970:A *210:28 5.8678e-05
27 *970:A *236:12 0.00029719
28 *970:A *252:54 0
29 *104:10 *1158:CLK 6.41634e-05
30 *104:10 *106:57 2.4526e-05
31 *104:10 *110:6 0.000194225
32 *104:10 *110:53 0.000346174
33 *104:10 *167:38 1.91597e-05
34 *104:10 *263:18 0.000155601
35 *104:14 *170:43 0.000315447
36 *952:D *104:10 5.95719e-05
37 *961:A *104:10 2.49909e-05
38 *963:A_N *104:14 0.000153816
39 *963:C *104:10 7.15414e-05
40 *963:C *104:14 0.000122821
41 *964:A *104:14 1.83756e-05
42 *965:A *104:10 2.39856e-05
43 *995:A *970:A 0.000178683
44 *1112:A *970:A 3.04518e-05
45 *1120:S *970:A 0.000638478
46 *1138:B *970:A 0.000121437
47 *1158:D *104:10 7.22311e-05
48 *1161:D *970:A 0.000481017
49 *1166:D *970:A 6.75156e-05
50 *1174:D *970:A 1.72743e-05
51 *64:88 *970:A 0.000260717
52 *100:32 *104:10 0.000126529
*RES
1 *965:X *104:10 24.415 
2 *104:10 *104:14 6.245 
3 *104:14 *970:A 40.92 
4 *104:14 *968:A 7.41 
5 *104:10 *971:A 1.6 
*END

*D_NET *105 0.00802367
*CONN
*I *967:A I *D sky130_fd_sc_hd__buf_2
*I *966:X O *D sky130_fd_sc_hd__and3b_1
*CAP
1 *967:A 0.00221949
2 *966:X 0.00221949
3 *967:A *988:A 1.74629e-05
4 *967:A *1005:B 0.000182914
5 *967:A *1016:A2 2.01841e-05
6 *967:A *1050:A0 0
7 *967:A *1051:A1 2.49909e-05
8 *967:A *1057:A 0.000269847
9 *967:A *1098:A2 0.000119145
10 *967:A *1105:C 0
11 *967:A *128:38 0.0012796
12 *967:A *135:10 0.000126373
13 *967:A *150:60 0.000335431
14 *967:A *260:40 0.000359709
15 seg[2] *967:A 3.93456e-05
16 *966:B *967:A 2.20934e-05
17 *1050:S *967:A 1.42965e-05
18 *1097:A2 *967:A 8.49205e-05
19 *1153:A *967:A 0.000218261
20 *1182:RESET_B *967:A 0.000459069
21 *48:38 *967:A 5.02126e-06
22 *82:162 *967:A 6.01884e-06
*RES
1 *966:X *967:A 49.08 
*END

*D_NET *106 0.0364837
*CONN
*I *1042:B1 I *D sky130_fd_sc_hd__a31o_1
*I *971:B I *D sky130_fd_sc_hd__nor2_2
*I *987:A1 I *D sky130_fd_sc_hd__o21a_1
*I *1028:C1 I *D sky130_fd_sc_hd__a211o_1
*I *1094:B1 I *D sky130_fd_sc_hd__a21oi_1
*I *968:B I *D sky130_fd_sc_hd__or2_1
*I *988:A I *D sky130_fd_sc_hd__or3_2
*I *967:X O *D sky130_fd_sc_hd__buf_2
*CAP
1 *1042:B1 0
2 *971:B 0
3 *987:A1 0.0003428
4 *1028:C1 0.000396956
5 *1094:B1 0.000151502
6 *968:B 3.2335e-05
7 *988:A 0.000457097
8 *967:X 0.00022339
9 *106:95 0.00122666
10 *106:80 0.00105581
11 *106:65 0.000678893
12 *106:57 0.00159979
13 *106:37 0.00398193
14 *106:6 0.00329178
15 *968:B *271:43 2.76356e-05
16 *987:A1 *987:A2 0.000121027
17 *987:A1 *174:112 0.000580704
18 *987:A1 *230:61 0.000309458
19 *987:A1 *270:28 0.000676299
20 *988:A *1080:B 9.03208e-05
21 *988:A *180:43 0.000494902
22 *988:A *260:40 0.000513746
23 *1028:C1 *1028:B1 2.85313e-05
24 *1028:C1 *1030:A 1.82831e-05
25 *1028:C1 *1067:A 0.000333137
26 *1028:C1 *1111:A0 0.000104716
27 *1028:C1 *120:26 3.69766e-05
28 *1028:C1 *205:22 0.000247026
29 *1028:C1 *230:61 0.000225285
30 *1094:B1 *1094:A1 0.000823802
31 *1094:B1 *1094:A2 0.00082374
32 *106:6 *135:10 0.000301487
33 *106:37 *1031:B 4.82354e-05
34 *106:37 *1043:B 4.12303e-05
35 *106:37 *1045:A 0.00135626
36 *106:37 *1052:A2 2.41628e-05
37 *106:37 *1094:A1 2.57386e-05
38 *106:37 *1095:A2 0
39 *106:37 *1100:A_N 0.000585873
40 *106:37 *1196:A 0
41 *106:37 *108:49 0.000382809
42 *106:37 *119:46 0.00037759
43 *106:37 *135:10 0.000321614
44 *106:37 *180:14 0.00018158
45 *106:37 *182:49 1.5903e-05
46 *106:37 *184:20 0.00146717
47 *106:37 *221:12 0.000557035
48 *106:57 *990:B 0
49 *106:57 *1021:B1 0.00105992
50 *106:57 *1031:B 7.39166e-05
51 *106:57 *1078:A3 3.82018e-05
52 *106:57 *108:49 0.000351948
53 *106:57 *110:6 0.000342867
54 *106:57 *110:53 0.000632606
55 *106:57 *120:88 1.43622e-05
56 *106:57 *170:43 0.000192448
57 *106:57 *256:22 0.000121034
58 *106:65 *185:63 0
59 *106:65 *271:43 0.000320066
60 *106:80 *1060:A 3.23136e-05
61 *106:80 *1079:A2 0.000689049
62 *106:80 *1180:CLK 5.65557e-05
63 *106:80 *161:32 0.0002334
64 *106:80 *271:43 9.12671e-06
65 *106:95 *950:A 3.6028e-05
66 *106:95 *1094:A1 0.000302133
67 *106:95 *1094:A2 0.00029188
68 *106:95 *155:143 0.000247121
69 *106:95 *236:33 1.88602e-05
70 *106:95 *237:18 0.000140861
71 *106:95 *252:54 0.000171114
72 an[3] *106:37 5.92221e-05
73 seg[3] *988:A 2.05641e-05
74 *946:A *106:57 0.000127194
75 *963:A_N *106:65 0
76 *963:C *106:57 0.000743406
77 *964:A *106:95 0.000584513
78 *967:A *988:A 1.74629e-05
79 *968:A *968:B 8.23457e-05
80 *1008:A2 *106:57 6.40571e-05
81 *1028:A1 *1028:C1 5.58524e-05
82 *1037:A1 *988:A 0.000139245
83 *1042:A1 *106:57 5.21426e-05
84 *1050:S *988:A 4.78726e-05
85 *1142:A *106:80 0.000747478
86 *1153:A *106:37 0.000129409
87 *1163:D *988:A 0.000325522
88 *1176:D *106:37 0.000349925
89 *1176:D *106:57 0.00141867
90 *37:16 *106:95 2.24238e-05
91 *53:16 *1028:C1 0.000149341
92 *58:28 *106:65 0.000173858
93 *58:28 *106:80 0.00023979
94 *88:12 *106:57 0.000128007
95 *89:22 *106:95 8.03815e-05
96 *100:32 *106:57 0.000659323
97 *103:32 *987:A1 8.41307e-05
98 *104:10 *106:57 2.4526e-05
*RES
1 *967:X *106:6 4.465 
2 *106:6 *988:A 20.495 
3 *106:6 *106:37 31.2251 
4 *106:37 *106:57 27.6354 
5 *106:57 *106:65 9.1 
6 *106:65 *968:B 2.395 
7 *106:65 *106:80 17.215 
8 *106:80 *1094:B1 9.295 
9 *106:80 *106:95 17.17 
10 *106:95 *1028:C1 15.2 
11 *106:95 *987:A1 11.83 
12 *106:57 *971:B 1.6 
13 *106:37 *1042:B1 1.6 
*END

*D_NET *107 0.00522481
*CONN
*I *969:A I *D sky130_fd_sc_hd__clkbuf_2
*I *968:X O *D sky130_fd_sc_hd__or2_1
*CAP
1 *969:A 0.00164097
2 *968:X 0.00164097
3 *969:A *1014:B 3.26448e-05
4 *969:A *146:32 4.97394e-05
5 *969:A *201:100 0.00134312
6 *969:A *211:26 9.89832e-05
7 *969:A *271:43 0.000418377
*RES
1 *968:X *969:A 29.79 
*END

*D_NET *108 0.0256895
*CONN
*I *1097:C1 I *D sky130_fd_sc_hd__a221o_1
*I *973:A2 I *D sky130_fd_sc_hd__a21o_1
*I *986:A2 I *D sky130_fd_sc_hd__a21o_1
*I *996:A I *D sky130_fd_sc_hd__buf_1
*I *1021:B1 I *D sky130_fd_sc_hd__a21oi_1
*I *969:X O *D sky130_fd_sc_hd__clkbuf_2
*CAP
1 *1097:C1 0.000120909
2 *973:A2 5.20913e-05
3 *986:A2 0.000159986
4 *996:A 5.17875e-05
5 *1021:B1 0.00258597
6 *969:X 0.000491552
7 *108:65 0.000933024
8 *108:49 0.00217143
9 *108:18 0.00422281
10 *108:10 0.000851211
11 *973:A2 *973:B1 1.87038e-05
12 *973:A2 *1005:C 4.89295e-05
13 *986:A2 *986:B1 4.7003e-05
14 *986:A2 *987:B1 8.52845e-05
15 *986:A2 *1052:A1 3.39336e-05
16 *996:A *135:10 2.49909e-05
17 *1021:B1 *1095:B1 0.00120508
18 *1021:B1 *109:40 7.94016e-06
19 *1021:B1 *109:50 0.000165124
20 *1021:B1 *173:32 0.000120693
21 *1021:B1 *238:12 0.000128259
22 *1097:C1 *1054:B 4.11718e-05
23 *1097:C1 *1097:B2 4.66108e-05
24 *108:10 *1055:B1 0.000317618
25 *108:18 *1055:A2 3.16057e-06
26 *108:18 *1055:B1 3.57702e-05
27 *108:18 *1058:B 0.000182644
28 *108:18 *1097:B2 0.000196276
29 *108:18 *120:88 9.87077e-05
30 *108:18 *170:43 7.59731e-05
31 *108:18 *261:14 1.95698e-05
32 *108:49 *1093:B1 5.15071e-05
33 *108:49 *1095:B1 0.000164808
34 *108:49 *1128:A1 0
35 *108:49 *221:12 1.88656e-05
36 *108:49 *263:50 0.000400502
37 *108:65 *973:B1 0.000190461
38 *108:65 *1056:B1 2.2942e-05
39 *108:65 *1080:B 3.86814e-05
40 *108:65 *1176:CLK 4.71711e-05
41 *108:65 *135:10 6.33103e-05
42 *108:65 *207:18 0.000115417
43 *108:65 *223:30 0.000716507
44 *936:A *996:A 6.33103e-05
45 *936:A *108:65 5.94099e-05
46 *953:C1 *108:10 0.000329705
47 *953:C1 *108:18 0.000122263
48 *953:C1 *108:49 0.000159404
49 *958:B *108:49 3.72952e-05
50 *1137:A *1021:B1 0
51 *1142:A *1021:B1 0.000347353
52 *1153:A *108:49 8.85211e-05
53 *1176:D *1021:B1 0.00181895
54 *1176:D *108:49 0.00155183
55 *42:14 *1021:B1 0.000127062
56 *57:22 *108:49 0
57 *57:22 *108:65 0.000281409
58 *57:36 *108:65 0.000569067
59 *64:68 *986:A2 0.000339943
60 *65:14 *108:10 0.000342583
61 *78:6 *996:A 8.34281e-06
62 *78:16 *996:A 1.56428e-05
63 *81:28 *1021:B1 0.000197369
64 *81:72 *108:49 4.12356e-05
65 *82:18 *986:A2 0.000273445
66 *82:18 *108:65 3.59932e-05
67 *83:8 *108:10 1.61489e-05
68 *83:10 *108:10 0.00013034
69 *84:14 *108:10 0.000369889
70 *97:22 *1097:C1 0.00019391
71 *106:37 *108:49 0.000382809
72 *106:57 *1021:B1 0.00105992
73 *106:57 *108:49 0.000351948
*RES
1 *969:X *108:10 15.33 
2 *108:10 *108:18 6.3875 
3 *108:18 *1021:B1 12.0422 
4 *108:18 *108:49 8.65577 
5 *108:49 *108:65 19.685 
6 *108:65 *996:A 2.74 
7 *108:65 *986:A2 10.58 
8 *108:49 *973:A2 4.5 
9 *108:10 *1097:C1 6.12 
*END

*D_NET *109 0.0280078
*CONN
*I *1021:A2 I *D sky130_fd_sc_hd__a21oi_1
*I *1097:B1 I *D sky130_fd_sc_hd__a221o_1
*I *972:B1 I *D sky130_fd_sc_hd__o221a_1
*I *970:Y O *D sky130_fd_sc_hd__nor2_2
*CAP
1 *1021:A2 0.000218647
2 *1097:B1 0.00079475
3 *972:B1 0.00121904
4 *970:Y 0.00124779
5 *109:50 0.0067016
6 *109:40 0.00615425
7 *972:B1 *945:A1 6.04355e-05
8 *972:B1 *972:B2 4.77719e-05
9 *972:B1 *1056:B1 6.04355e-05
10 *972:B1 *1128:A0 0.000154996
11 *972:B1 *1193:A 0.000190803
12 *972:B1 *204:28 0.000490734
13 *972:B1 *234:163 4.66108e-05
14 *972:B1 *263:50 0.000649448
15 *1021:A2 *1021:A1 7.66388e-05
16 *1021:A2 *1022:B2 0.000273054
17 *1021:A2 *1142:B 1.7635e-05
18 *1097:B1 *1020:A 1.49476e-05
19 *1097:B1 *1062:B1 0
20 *1097:B1 *1078:A3 5.062e-06
21 *1097:B1 *1097:A1 4.7873e-05
22 *1097:B1 *1097:B2 4.92433e-06
23 *1097:B1 *168:20 0.000258691
24 *109:40 *1019:B 0.000818604
25 *109:40 *1076:A1 0.00019203
26 *109:40 *1076:A2 0.000194285
27 *109:40 *1076:A3 8.65183e-05
28 *109:40 *1076:B1 4.77757e-05
29 *109:40 *1103:A0 0.000338635
30 *109:40 *1103:A1 1.84465e-05
31 *109:40 *1124:A1 0.000501688
32 *109:40 *1142:B 1.35532e-05
33 *109:40 *139:18 0.000230507
34 *109:40 *152:24 7.46447e-05
35 *109:40 *153:24 0.00106637
36 *109:40 *173:32 4.12831e-05
37 *109:40 *233:51 0.000136685
38 *109:40 *239:22 0.000328177
39 *109:40 *250:29 8.33607e-05
40 *939:A *1097:B1 2.94622e-05
41 *939:A *109:50 0.00242564
42 *946:A *1097:B1 4.89206e-05
43 *1021:B1 *109:40 7.94016e-06
44 *1021:B1 *109:50 0.000165124
45 *1097:A2 *972:B1 0.000149904
46 *1137:A *109:50 0.000321258
47 *1142:A *109:50 0.000107174
48 *1145:A *109:40 0.000378347
49 *1184:RESET_B *1021:A2 0.000413033
50 *28:24 *109:40 9.29903e-05
51 *65:14 *972:B1 5.5692e-05
52 *78:84 *972:B1 3.5734e-05
53 *78:84 *1097:B1 4.23528e-05
54 *81:72 *972:B1 0.000640377
55 *89:22 *972:B1 0.000185192
*RES
1 *970:Y *109:40 43.7406 
2 *109:40 *109:50 2.11278 
3 *109:50 *972:B1 9.02123 
4 *109:50 *1097:B1 7.3863 
5 *109:40 *1021:A2 9.9575 
*END

*D_NET *110 0.0231511
*CONN
*I *972:C1 I *D sky130_fd_sc_hd__o221a_1
*I *1096:A I *D sky130_fd_sc_hd__buf_1
*I *1041:S I *D sky130_fd_sc_hd__mux2_1
*I *1022:A2_N I *D sky130_fd_sc_hd__a2bb2o_2
*I *985:C1 I *D sky130_fd_sc_hd__o221a_1
*I *971:Y O *D sky130_fd_sc_hd__nor2_2
*CAP
1 *972:C1 0.000170546
2 *1096:A 0.000514737
3 *1041:S 0.000237896
4 *1022:A2_N 3.30774e-05
5 *985:C1 0.00101374
6 *971:Y 8.58131e-05
7 *110:78 0.00107907
8 *110:70 0.00198287
9 *110:53 0.00237105
10 *110:6 0.00195163
11 *972:C1 *972:B2 4.66108e-05
12 *972:C1 *1056:A1 1.11363e-05
13 *972:C1 *234:163 0.00033764
14 *985:C1 *948:A 2.8846e-05
15 *985:C1 *985:B1 6.83182e-05
16 *985:C1 *1071:A 0.000859662
17 *985:C1 *1071:B_N 0.000333772
18 *985:C1 *1079:A2 8.73147e-06
19 *985:C1 *1124:A1 0.000123878
20 *985:C1 *1132:A 7.47467e-05
21 *985:C1 *1171:CLK 5.21752e-05
22 *985:C1 *123:22 0.000180428
23 *985:C1 *201:100 4.46808e-07
24 *985:C1 *208:81 0.000544063
25 *985:C1 *254:10 0.000160734
26 *1022:A2_N *170:43 1.10085e-05
27 *1041:S *1004:C1 0.000248519
28 *1041:S *1041:A1 8.52972e-05
29 *1041:S *1056:C1 0.000130827
30 *1041:S *112:41 0
31 *1041:S *127:51 1.43077e-05
32 *1041:S *267:26 8.71087e-05
33 *1096:A *972:A1 1.19928e-05
34 *1096:A *1004:C1 0.00111236
35 *1096:A *1006:A2 0.000554003
36 *1096:A *1098:A2 9.49027e-05
37 *1096:A *1154:A 4.16311e-05
38 *110:53 *994:A 0.000518099
39 *110:53 *1022:A1_N 2.87433e-05
40 *110:53 *1022:B2 0.000121451
41 *110:53 *1075:A1 1.83114e-05
42 *110:53 *128:38 0.000107452
43 *110:53 *154:18 0.000340249
44 *110:53 *170:43 0.000438902
45 *110:53 *247:71 6.49495e-05
46 *110:70 *994:A 0.00019312
47 *110:70 *1022:B1 0.00103374
48 *110:70 *1043:B 1.7635e-05
49 *110:70 *1056:A1 0.000229297
50 *110:70 *116:23 0.000136047
51 *110:70 *120:76 5.74791e-05
52 *110:70 *170:43 9.47972e-06
53 *110:70 *174:29 0.000434986
54 *110:70 *223:30 9.94592e-05
55 *110:78 *1004:C1 2.85364e-05
56 *110:78 *1056:A1 0.000108595
57 *110:78 *1056:C1 0.000409138
58 *110:78 *1062:B1 1.60922e-05
59 *110:78 *204:28 1.7635e-05
60 *110:78 *234:163 0.000158543
61 *944:A *985:C1 9.71194e-05
62 *944:B *985:C1 6.11965e-05
63 *946:A *110:53 0.000133576
64 *953:A1 *110:53 8.33791e-05
65 *959:A3 *985:C1 0.000128583
66 *964:A *985:C1 4.77045e-05
67 *972:A2 *972:C1 0.00016432
68 *1004:B1 *1096:A 0.000153816
69 *1097:A2 *972:C1 1.88602e-05
70 *1146:S *972:C1 2.2684e-05
71 *1146:S *110:70 3.68008e-05
72 *1183:D *110:53 0
73 *1184:D *985:C1 2.60003e-05
74 *65:14 *110:70 0.000289657
75 *77:49 *110:53 3.69766e-05
76 *81:28 *110:53 0.000115376
77 *82:30 *1041:S 4.90227e-05
78 *83:20 *110:53 5.99945e-06
79 *90:34 *1096:A 0.00029854
80 *93:12 *985:C1 0.000150642
81 *98:42 *110:53 0.000366786
82 *100:32 *110:53 9.67062e-05
83 *104:10 *110:6 0.000194225
84 *104:10 *110:53 0.000346174
85 *106:57 *110:6 0.000342867
86 *106:57 *110:53 0.000632606
*RES
1 *971:Y *110:6 4.81 
2 *110:6 *985:C1 30.23 
3 *110:6 *110:53 20.1473 
4 *110:53 *1022:A2_N 2.215 
5 *110:53 *110:70 27.365 
6 *110:70 *110:78 10.69 
7 *110:78 *1041:S 8.775 
8 *110:78 *1096:A 17.67 
9 *110:70 *972:C1 7.875 
*END

*D_NET *111 0.00149069
*CONN
*I *973:B1 I *D sky130_fd_sc_hd__a21o_1
*I *972:X O *D sky130_fd_sc_hd__o221a_1
*CAP
1 *973:B1 0.000429327
2 *972:X 0.000429327
3 *973:B1 *1005:C 6.56352e-05
4 *973:B1 *1165:CLK 4.66108e-05
5 *973:B1 *1176:CLK 0.000231717
6 *973:B1 *1191:A 3.11374e-05
7 *973:B1 *234:163 4.77719e-05
8 *973:A2 *973:B1 1.87038e-05
9 *108:65 *973:B1 0.000190461
*RES
1 *972:X *973:B1 14.295 
*END

*D_NET *112 0.0172893
*CONN
*I *1031:B I *D sky130_fd_sc_hd__or2_1
*I *974:B I *D sky130_fd_sc_hd__nor2_2
*I *1024:B I *D sky130_fd_sc_hd__nand2_1
*I *1062:A1 I *D sky130_fd_sc_hd__a31o_2
*I *973:X O *D sky130_fd_sc_hd__a21o_1
*CAP
1 *1031:B 0.000775677
2 *974:B 9.92465e-05
3 *1024:B 0.000837454
4 *1062:A1 0
5 *973:X 0.000912461
6 *112:41 0.00133755
7 *112:30 0.000757926
8 *112:18 0.00204521
9 *974:B *986:B1 0.000172635
10 *974:B *987:B1 4.72543e-05
11 *1024:B *1006:A1 0.000328489
12 *1024:B *1024:A 1.67131e-05
13 *1024:B *1052:B2 7.9642e-06
14 *1024:B *1093:B1 0.000174041
15 *1024:B *1099:A 0.00067376
16 *1024:B *118:63 0.000168222
17 *1024:B *127:51 0.000169453
18 *1024:B *198:24 1.94387e-05
19 *1024:B *231:22 0.000193113
20 *1024:B *236:73 5.92147e-05
21 *1024:B *259:14 6.22079e-05
22 *1031:B *1032:A2 6.72833e-06
23 *1031:B *1049:A 5.92278e-05
24 *1031:B *1062:A2 0.000359753
25 *1031:B *1078:A3 8.36955e-05
26 *1031:B *1100:A_N 7.08493e-05
27 *1031:B *119:46 3.27181e-06
28 *1031:B *120:88 0.000261782
29 *1031:B *127:51 7.18107e-06
30 *1031:B *155:98 9.387e-06
31 *1031:B *178:71 0.000209417
32 *1031:B *188:16 8.52845e-05
33 *1031:B *196:16 5.09707e-05
34 *1031:B *201:80 1.35015e-05
35 *1031:B *256:22 4.46173e-05
36 *112:18 *1005:B 5.79555e-05
37 *112:18 *1069:A 0.000221802
38 *112:18 *1146:A0 0.000663023
39 *112:18 *1146:A1 8.46767e-05
40 *112:18 *1191:A 0.000158845
41 *112:18 *223:30 1.91597e-05
42 *112:30 *1056:C1 2.68464e-05
43 *112:30 *1062:A2 0.000720254
44 *112:30 *1062:A3 0.000149302
45 *112:30 *201:6 8.40213e-05
46 *112:41 *1004:C1 1.88153e-05
47 *112:41 *1041:A0 6.72143e-05
48 *112:41 *1056:C1 5.44672e-05
49 *112:41 *118:63 0.0004554
50 *112:41 *127:51 0.000497953
51 *979:A *1024:B 7.40907e-05
52 *1010:B *1024:B 0.00125768
53 *1041:S *112:41 0
54 *1042:A1 *1031:B 7.9642e-06
55 *1110:A *1024:B 0.000289978
56 *1113:S *1024:B 1.79098e-05
57 *1143:A *974:B 4.47879e-05
58 *31:28 *1024:B 0.000176508
59 *56:26 *1031:B 0.000311596
60 *56:26 *112:30 0.000623742
61 *57:22 *112:18 0.000302103
62 *71:14 *974:B 4.77757e-05
63 *71:14 *112:41 4.07147e-05
64 *77:145 *1024:B 0.000470675
65 *84:32 *1031:B 8.87401e-05
66 *84:130 *112:30 9.47972e-06
67 *106:37 *1031:B 4.82354e-05
68 *106:57 *1031:B 7.39166e-05
*RES
1 *973:X *112:18 22.135 
2 *112:18 *112:30 12.755 
3 *112:30 *1062:A1 1.6 
4 *112:30 *112:41 10.985 
5 *112:41 *1024:B 34.015 
6 *112:41 *974:B 6.72 
7 *112:18 *1031:B 22.96 
*END

*D_NET *113 0.0245769
*CONN
*I *992:A1 I *D sky130_fd_sc_hd__a21oi_2
*I *990:A I *D sky130_fd_sc_hd__or2_1
*I *1000:B1 I *D sky130_fd_sc_hd__a21oi_1
*I *974:Y O *D sky130_fd_sc_hd__nor2_2
*CAP
1 *992:A1 0.00140111
2 *990:A 0.00125256
3 *1000:B1 0.00159307
4 *974:Y 1.11925e-05
5 *113:16 0.00417989
6 *113:10 0.00274656
7 *990:A *990:B 2.99518e-06
8 *990:A *1085:S 0.000696832
9 *990:A *129:28 5.63183e-05
10 *990:A *154:18 0.00177095
11 *990:A *173:32 0.000219166
12 *992:A1 *992:B1 0.000105967
13 *992:A1 *1006:A3 9.96128e-05
14 *992:A1 *1016:A2 6.13404e-05
15 *992:A1 *1043:B 6.3845e-06
16 *992:A1 *1080:B 1.32808e-05
17 *992:A1 *1093:B1 0.000153825
18 *992:A1 *1105:A 0.000349007
19 *992:A1 *118:63 9.80032e-06
20 *992:A1 *128:38 7.56969e-05
21 *992:A1 *239:93 0.000221342
22 *992:A1 *260:40 9.83106e-05
23 *1000:B1 *1024:A 0.000138769
24 *1000:B1 *1086:A 5.57503e-05
25 *1000:B1 *134:10 7.9642e-06
26 *1000:B1 *154:18 3.42438e-05
27 *1000:B1 *169:16 1.0911e-05
28 *1000:B1 *173:32 1.00404e-05
29 *1000:B1 *250:64 0.000274464
30 *113:10 *118:63 4.61701e-06
31 *113:16 *992:B1 0.00139475
32 *113:16 *1080:B 6.60178e-06
33 *113:16 *263:50 0.000167484
34 *1023:S *992:A1 2.01169e-05
35 *1023:S *1000:B1 0.00178916
36 *1023:S *113:16 0.000261367
37 *1147:A *113:10 1.88656e-05
38 *1157:D *1000:B1 8.33066e-06
39 *1171:D *990:A 0.000703946
40 *1174:D *1000:B1 5.07765e-05
41 *1180:D *990:A 0.000330306
42 *1181:D *1000:B1 0.000300421
43 *32:60 *1000:B1 0.000318074
44 *32:60 *113:16 0.00115411
45 *48:38 *992:A1 0.00138137
46 *64:88 *1000:B1 0.000309434
47 *64:88 *113:16 0.000506059
48 *70:32 *113:16 2.70838e-05
49 *85:20 *1000:B1 0.000166657
50 *100:32 *990:A 0
*RES
1 *974:Y *113:10 4.3325 
2 *113:10 *113:16 3.8418 
3 *113:16 *1000:B1 11.682 
4 *113:16 *990:A 10.7077 
5 *113:10 *992:A1 12.7912 
*END

*D_NET *114 0.00373221
*CONN
*I *976:C1 I *D sky130_fd_sc_hd__a211o_2
*I *975:X O *D sky130_fd_sc_hd__and4b_1
*CAP
1 *976:C1 0.000510137
2 *975:X 0.000510137
3 *976:C1 *975:C 8.4627e-05
4 *976:C1 *976:A1 0.000277087
5 *976:C1 *1006:A1 0.00038128
6 *976:C1 *1006:A3 0.00038189
7 *976:C1 *1195:A 0.00119307
8 *976:C1 *118:63 9.84865e-05
9 *56:26 *976:C1 8.94787e-05
10 *77:131 *976:C1 0.000206017
*RES
1 *975:X *976:C1 22.695 
*END

*D_NET *115 0.0191552
*CONN
*I *1025:A2 I *D sky130_fd_sc_hd__a31o_1
*I *981:A2 I *D sky130_fd_sc_hd__a31oi_4
*I *976:X O *D sky130_fd_sc_hd__a211o_2
*CAP
1 *1025:A2 0.000218046
2 *981:A2 0.0022239
3 *976:X 0.00201165
4 *115:14 0.0044536
5 *981:A2 *981:B1 0.000681465
6 *981:A2 *992:B1 7.40049e-05
7 *981:A2 *998:A 0.000351522
8 *981:A2 *999:A2 3.30102e-05
9 *981:A2 *1026:A1 8.73165e-05
10 *981:A2 *1041:A1 4.77806e-05
11 *981:A2 *1067:A 6.53006e-05
12 *981:A2 *1076:A1 0.00022289
13 *981:A2 *1080:B 7.73271e-05
14 *981:A2 *1111:A0 0.000951746
15 *981:A2 *1126:A1 3.41554e-05
16 *981:A2 *120:26 0.000129412
17 *981:A2 *169:35 5.77533e-05
18 *981:A2 *204:28 0.000387833
19 *981:A2 *249:33 4.24562e-05
20 *981:A2 *265:16 1.98547e-06
21 *1025:A2 *987:A2 0.000121073
22 *1025:A2 *1025:A3 1.03258e-05
23 *1025:A2 *1072:B 1.17846e-05
24 *1025:A2 *1126:A1 0.000159404
25 *1025:A2 *248:23 2.83644e-05
26 *115:14 *976:A1 0.000415875
27 *115:14 *1006:A1 0.000331762
28 *115:14 *1006:A3 0.00026807
29 *115:14 *1016:A2 0.000309131
30 *115:14 *1126:A1 2.82741e-05
31 *115:14 *118:63 9.96663e-05
32 *115:14 *124:36 8.53307e-05
33 *115:14 *126:22 0.000138546
34 *115:14 *145:8 2.69217e-05
35 *115:14 *247:18 0
36 *115:14 *248:23 1.63741e-05
37 *956:A *981:A2 1.22801e-05
38 *964:A *981:A2 5.88876e-05
39 *995:A *981:A2 0.000437318
40 *1025:A1 *1025:A2 4.71087e-05
41 *1028:A1 *981:A2 0.000639551
42 *1111:S *981:A2 8.70354e-05
43 *1120:S *981:A2 0.00014901
44 *1134:B *115:14 5.53549e-06
45 *1141:A *981:A2 1.79536e-05
46 *1151:A *1025:A2 0.000146298
47 *1177:D *981:A2 0.00090037
48 *31:28 *1025:A2 4.88475e-05
49 *31:28 *115:14 0.000623383
50 *32:60 *981:A2 0
51 *53:16 *981:A2 0
52 *57:50 *981:A2 0.000328934
53 *64:68 *115:14 3.78765e-05
54 *95:53 *115:14 6.57653e-06
55 *96:28 *115:14 0.00085252
56 *100:65 *981:A2 0.000551608
*RES
1 *976:X *115:14 37.2375 
2 *115:14 *981:A2 25.6178 
3 *115:14 *1025:A2 8.9775 
*END

*D_NET *116 0.0305814
*CONN
*I *984:B I *D sky130_fd_sc_hd__nand2_2
*I *985:A2 I *D sky130_fd_sc_hd__o221a_1
*I *978:B I *D sky130_fd_sc_hd__or2_2
*I *1005:C I *D sky130_fd_sc_hd__or3_2
*I *1055:A3 I *D sky130_fd_sc_hd__o31a_1
*I *977:Y O *D sky130_fd_sc_hd__nand2b_2
*CAP
1 *984:B 0.000121826
2 *985:A2 0
3 *978:B 0.000705036
4 *1005:C 0.000552758
5 *1055:A3 0.000269867
6 *977:Y 0.000137298
7 *116:98 0.00233921
8 *116:82 0.00284119
9 *116:60 0.00283608
10 *116:23 0.00275308
11 *116:8 0.00110025
12 *978:B *978:A 0.00146062
13 *978:B *1065:A 0.000484713
14 *978:B *180:63 0.00175861
15 *978:B *215:14 0.00116155
16 *984:B *984:A 4.66108e-05
17 *984:B *1078:A1 0.000312757
18 *984:B *1078:A2 9.09641e-05
19 *984:B *1115:A0 8.7152e-06
20 *984:B *1152:A1 4.36573e-06
21 *984:B *202:14 8.46767e-05
22 *1005:C *973:A1 0.000495443
23 *1005:C *1176:CLK 8.52137e-06
24 *1005:C *174:29 9.07806e-05
25 *1005:C *251:6 4.89362e-05
26 *1055:A3 *1055:A2 4.99619e-05
27 *1055:A3 *1056:C1 8.52972e-05
28 *1055:A3 *1089:A1 0
29 *1055:A3 *221:43 0
30 *116:8 *1054:A 0.000562371
31 *116:8 *174:45 0.000315816
32 *116:23 *121:18 0.000120178
33 *116:23 *128:38 3.79555e-05
34 *116:23 *168:20 1.63344e-05
35 *116:23 *174:29 0.000222577
36 *116:60 *957:A 8.23457e-05
37 *116:60 *973:A1 0.00018663
38 *116:60 *1035:A1_N 0.000524057
39 *116:60 *1038:B 7.56727e-05
40 *116:60 *1078:B1 1.91597e-05
41 *116:60 *1094:A2 0.000782058
42 *116:60 *1100:B 1.88602e-05
43 *116:60 *1196:A 0.000130474
44 *116:60 *178:71 1.7635e-05
45 *116:60 *257:14 0.000342559
46 *116:82 *985:A1 4.55864e-06
47 *116:82 *987:A2 5.77533e-05
48 *116:82 *1033:A 4.12441e-05
49 *116:82 *1033:B 2.95291e-05
50 *116:82 *1035:A1_N 0.000378756
51 *116:82 *1041:A1 0.00048292
52 *116:82 *1048:A 5.26636e-06
53 *116:82 *1094:A2 0.000226631
54 *116:82 *1154:A 0.000172434
55 *116:82 *154:18 4.02488e-05
56 *116:82 *258:24 0.000194278
57 *116:98 *985:A1 3.17287e-05
58 *116:98 *985:B2 0.000158757
59 *116:98 *992:B1 0.000219289
60 *116:98 *1033:A 1.8008e-05
61 *116:98 *1033:B 9.97121e-06
62 *116:98 *1046:A 0.000102479
63 *116:98 *1071:A 0.000154822
64 *116:98 *1071:B_N 0.000212457
65 *116:98 *1092:A 0
66 *116:98 *1093:B1 0.000108538
67 *116:98 *1122:A1 0.000133855
68 *116:98 *1173:CLK 0.000192493
69 *116:98 *124:36 0.000226575
70 *116:98 *157:30 1.14803e-05
71 *116:98 *169:35 2.0851e-06
72 *116:98 *183:10 0
73 *116:98 *185:20 0.000283641
74 *116:98 *187:24 0
75 *116:98 *255:20 0
76 *937:A *978:B 0.000426857
77 *938:A *116:98 0.000499834
78 *946:A *116:23 0.000140027
79 *963:A_N *1055:A3 0.000103203
80 *963:A_N *116:23 9.91608e-05
81 *973:A2 *1005:C 4.89295e-05
82 *973:B1 *1005:C 6.56352e-05
83 *991:B1 *116:98 0.000270238
84 *1005:A *1005:C 4.8854e-05
85 *1055:A1 *1055:A3 1.34503e-05
86 *1107:S *984:B 1.7635e-05
87 *1130:A *116:98 0.000110338
88 *1131:A *116:82 0.000319875
89 *1176:D *1005:C 1.50866e-05
90 *30:14 *1055:A3 7.1624e-05
91 *50:18 *1005:C 4.43571e-05
92 *50:18 *116:23 0.000572007
93 *65:14 *1055:A3 2.53191e-06
94 *65:14 *116:23 0
95 *96:28 *116:98 4.76779e-05
96 *100:32 *116:82 0.000724438
97 *110:70 *116:23 0.000136047
*RES
1 *977:Y *116:8 8.88 
2 *116:8 *1055:A3 8.775 
3 *116:8 *116:23 15.66 
4 *116:23 *1005:C 14.655 
5 *116:23 *116:60 15.9258 
6 *116:60 *116:82 11.8305 
7 *116:82 *116:98 35.49 
8 *116:98 *978:B 29.095 
9 *116:82 *985:A2 3.6 
10 *116:60 *984:B 7.5575 
*END

*D_NET *117 0.024751
*CONN
*I *1025:A3 I *D sky130_fd_sc_hd__a31o_1
*I *981:A3 I *D sky130_fd_sc_hd__a31oi_4
*I *978:X O *D sky130_fd_sc_hd__or2_2
*CAP
1 *1025:A3 0.00229767
2 *981:A3 0.00317287
3 *978:X 0.000313945
4 *117:12 0.00578449
5 *981:A3 *1016:B1 0.000235558
6 *981:A3 *1051:A0 3.09233e-05
7 *981:A3 *1052:B2 0.000295732
8 *981:A3 *1065:B 0.00225152
9 *981:A3 *1090:A 2.05583e-05
10 *981:A3 *1091:A0 0.000185953
11 *981:A3 *1103:A0 0.000587562
12 *981:A3 *139:18 0.000280051
13 *981:A3 *187:24 0
14 *981:A3 *216:20 0.000846241
15 *981:A3 *221:43 0.00184187
16 *1025:A3 *987:A2 9.03508e-06
17 *1025:A3 *1009:A2 4.41127e-05
18 *1025:A3 *1085:S 0.00015826
19 *1025:A3 *258:24 3.93456e-05
20 *117:12 *1065:A 1.32141e-05
21 *117:12 *1065:B 0.00185729
22 *117:12 *216:14 0
23 *1025:A1 *1025:A3 5.19006e-06
24 *1025:A2 *1025:A3 1.03258e-05
25 *1159:D *981:A3 1.26626e-05
26 *1160:D *981:A3 0.00232462
27 *1160:D *117:12 0.00196462
28 *1177:D *1025:A3 3.92756e-05
29 *1180:D *1025:A3 2.6451e-05
30 *1182:D *981:A3 2.41716e-05
31 *31:28 *1025:A3 3.82072e-05
32 *57:50 *1025:A3 3.92756e-05
33 *95:73 *1025:A3 0
*RES
1 *978:X *117:12 8.8649 
2 *117:12 *981:A3 19.38 
3 *117:12 *1025:A3 10.0114 
*END

*D_NET *118 0.0139389
*CONN
*I *980:B I *D sky130_fd_sc_hd__or2_2
*I *1105:C I *D sky130_fd_sc_hd__and3_1
*I *1006:B1 I *D sky130_fd_sc_hd__a31oi_4
*I *979:Y O *D sky130_fd_sc_hd__nor2_2
*CAP
1 *980:B 0.000407278
2 *1105:C 9.79739e-05
3 *1006:B1 0
4 *979:Y 0.000986028
5 *118:63 0.00171414
6 *118:24 0.00219491
7 *980:B *1045:A 4.77719e-05
8 *980:B *1045:B 4.12406e-05
9 *980:B *1050:A0 0.00122244
10 *980:B *128:38 0.000674935
11 *980:B *188:16 0.000157393
12 *1105:C *1016:A2 2.00923e-05
13 *1105:C *1050:A0 0.000176228
14 *1105:C *1105:A 1.79445e-05
15 *1105:C *128:38 1.52184e-05
16 *1105:C *180:8 1.70906e-05
17 *118:24 *1043:A 4.51682e-05
18 *118:24 *1052:A1 4.89295e-05
19 *118:24 *1172:CLK 2.87282e-05
20 *118:24 *145:47 3.59531e-06
21 *118:24 *149:30 8.97256e-05
22 *118:24 *150:48 0.000783377
23 *118:24 *198:24 0
24 *118:24 *234:18 2.85164e-05
25 *118:24 *234:31 1.23015e-05
26 *118:63 *976:A1 4.77807e-05
27 *118:63 *992:B1 0.000299336
28 *118:63 *1006:A1 0.000122821
29 *118:63 *1041:A1 1.14192e-05
30 *118:63 *1057:A 0.000429043
31 *118:63 *127:51 0.000159489
32 *118:63 *128:38 8.41307e-05
33 *118:63 *180:8 0.000381355
34 *118:63 *206:34 0.000150616
35 *118:63 *218:20 0.000117916
36 *118:63 *260:40 0.000120655
37 *967:A *1105:C 0
38 *976:C1 *118:63 9.84865e-05
39 *979:A *118:24 4.66108e-05
40 *992:A1 *118:63 9.80032e-06
41 *1024:B *118:63 0.000168222
42 *1050:S *118:63 0.00021396
43 *1125:A *118:63 5.18318e-05
44 *1147:A *118:63 0
45 *1153:A *980:B 0.000228644
46 *1172:D *118:24 0
47 *31:28 *118:24 2.11768e-05
48 *32:60 *118:63 5.78621e-05
49 *48:38 *118:24 0.00077413
50 *71:14 *118:63 0.0004554
51 *77:145 *118:24 0.000155608
52 *82:30 *118:63 0.000146025
53 *84:130 *118:63 0.000195873
54 *112:41 *118:63 0.0004554
55 *113:10 *118:63 4.61701e-06
56 *115:14 *118:63 9.96663e-05
*RES
1 *979:Y *118:24 16.5316 
2 *118:24 *1006:B1 1.6 
3 *118:24 *118:63 40.54 
4 *118:63 *1105:C 5.91 
5 *118:63 *980:B 19.47 
*END

*D_NET *119 0.0186116
*CONN
*I *1025:B1 I *D sky130_fd_sc_hd__a31o_1
*I *981:B1 I *D sky130_fd_sc_hd__a31oi_4
*I *980:X O *D sky130_fd_sc_hd__or2_2
*CAP
1 *1025:B1 0.000502781
2 *981:B1 0.00153121
3 *980:X 0.00189894
4 *119:46 0.00393293
5 *981:B1 *1041:A1 9.51088e-05
6 *981:B1 *1102:A 0.000188425
7 *981:B1 *1128:A0 0.000217966
8 *981:B1 *155:63 8.41509e-06
9 *981:B1 *204:28 6.52282e-05
10 *981:B1 *236:33 0.000793025
11 *981:B1 *255:83 0.000115522
12 *981:B1 *265:16 4.77273e-05
13 *1025:B1 *1009:A2 1.07792e-05
14 *1025:B1 *120:76 0.00077777
15 *1025:B1 *248:23 1.21256e-05
16 *119:46 *977:A_N 5.75488e-05
17 *119:46 *1042:A3 0.000156771
18 *119:46 *1078:A1 0.000104588
19 *119:46 *1078:A2 2.1553e-05
20 *119:46 *1078:A3 0
21 *119:46 *1094:A1 0.000343517
22 *119:46 *1095:A2 2.34168e-05
23 *119:46 *1100:A_N 4.05129e-06
24 *119:46 *1128:A0 0.000212511
25 *119:46 *123:22 0.000108972
26 *119:46 *150:60 0.000925699
27 *119:46 *201:80 2.5424e-05
28 *119:46 *251:16 8.53307e-05
29 *119:46 *257:14 0.000119246
30 *119:46 *261:14 0.000116948
31 *958:B *119:46 0.000306812
32 *965:A *119:46 0.000355409
33 *981:A1 *981:B1 0
34 *981:A2 *981:B1 0.000681465
35 *1025:A1 *1025:B1 3.76132e-05
36 *1031:B *119:46 3.27181e-06
37 *1151:A *1025:B1 5.91413e-05
38 *1158:D *1025:B1 0.000784131
39 *1171:D *981:B1 0.000111871
40 *1176:D *119:46 0.000317879
41 *1177:D *1025:B1 2.07171e-05
42 *1180:D *981:B1 0.000149523
43 *1183:RESET_B *981:B1 1.79536e-05
44 *84:83 *1025:B1 2.44592e-05
45 *88:70 *119:46 0.000811349
46 *89:22 *981:B1 0.00171974
47 *89:22 *119:46 0.000192334
48 *90:84 *119:46 0.000136868
49 *106:37 *119:46 0.00037759
*RES
1 *980:X *119:46 39.4342 
2 *119:46 *981:B1 10.3083 
3 *119:46 *1025:B1 7.58417 
*END

*D_NET *120 0.0236091
*CONN
*I *993:A I *D sky130_fd_sc_hd__clkbuf_1
*I *1058:B I *D sky130_fd_sc_hd__and4_1
*I *982:B I *D sky130_fd_sc_hd__xnor2_2
*I *1042:A2 I *D sky130_fd_sc_hd__a31o_1
*I *1027:B I *D sky130_fd_sc_hd__and2_1
*I *1028:A2 I *D sky130_fd_sc_hd__a211o_1
*I *981:Y O *D sky130_fd_sc_hd__a31oi_4
*CAP
1 *993:A 0
2 *1058:B 9.05743e-05
3 *982:B 0.000363774
4 *1042:A2 2.21004e-05
5 *1027:B 0.000634444
6 *1028:A2 0
7 *981:Y 0.000980922
8 *120:88 0.000701994
9 *120:78 0.000406694
10 *120:76 0.00168632
11 *120:39 0.00303574
12 *120:26 0.00169589
13 *982:B *977:A_N 6.13597e-05
14 *982:B *1042:A3 0.000265124
15 *982:B *1098:B1 1.81185e-05
16 *982:B *188:16 0.000301479
17 *982:B *201:80 0.000623795
18 *982:B *256:22 1.53053e-05
19 *1027:B *155:34 1.67629e-05
20 *1027:B *269:26 0.000776434
21 *1058:B *1058:C 4.66108e-05
22 *120:26 *1060:A 0.000714141
23 *120:26 *1076:A1 0.000560669
24 *120:26 *249:33 0
25 *120:26 *265:16 2.58731e-05
26 *120:39 *987:A2 0.000626649
27 *120:39 *1028:B1 0.000252124
28 *120:39 *1071:B_N 4.77757e-05
29 *120:39 *1072:B 2.14725e-05
30 *120:39 *1111:A0 0.000671201
31 *120:39 *124:36 0.000339616
32 *120:76 *1022:B1 0.000119595
33 *120:76 *1022:B2 0.000214987
34 *120:76 *1095:B1 0.000213027
35 *120:76 *145:75 0.000441492
36 *120:76 *155:63 0.000163344
37 *120:76 *170:43 0.000154977
38 *120:88 *1049:A 9.96098e-05
39 *120:88 *170:43 5.53549e-06
40 *120:88 *188:16 0.000267342
41 *120:88 *256:22 2.20014e-05
42 *953:B1 *120:88 4.26154e-05
43 *953:C1 *1058:B 0.000189744
44 *953:C1 *120:88 1.87784e-05
45 *956:A *120:26 1.90963e-05
46 *959:A1 *120:76 5.59544e-05
47 *965:A *120:76 1.88656e-05
48 *981:A2 *120:26 0.000129412
49 *982:A *982:B 0.000401196
50 *1025:B1 *120:76 0.00077777
51 *1027:A *1027:B 0.000819173
52 *1027:A *120:76 0.000132169
53 *1028:A1 *120:26 5.63183e-05
54 *1028:A1 *120:39 4.77807e-05
55 *1028:C1 *120:26 3.69766e-05
56 *1031:B *120:88 0.000261782
57 *1042:A1 *120:88 8.52883e-05
58 *1081:A *120:26 0.000125948
59 *1111:S *120:26 0.000353822
60 *1131:A *120:76 0.000150934
61 *1158:D *120:76 0.000142956
62 *1161:D *120:76 4.25663e-05
63 *1170:D *1027:B 0.000149537
64 *1177:D *120:76 3.23045e-05
65 *1183:RESET_B *120:26 0
66 *49:61 *120:76 1.87945e-05
67 *53:16 *120:26 2.14213e-05
68 *81:72 *982:B 0.000127543
69 *83:20 *120:76 1.66367e-05
70 *83:30 *120:76 0.000924134
71 *84:83 *1027:B 0.000464174
72 *84:83 *120:76 0.00047775
73 *95:18 *120:26 0.000362996
74 *98:79 *1058:B 4.66108e-05
75 *106:57 *120:88 1.43622e-05
76 *108:18 *1058:B 0.000182644
77 *108:18 *120:88 9.87077e-05
78 *110:70 *120:76 5.74791e-05
*RES
1 *981:Y *120:26 12.2525 
2 *120:26 *1028:A2 1.6 
3 *120:26 *120:39 17.75 
4 *120:39 *1027:B 20.325 
5 *120:39 *120:76 12.4412 
6 *120:76 *120:78 2 
7 *120:78 *120:88 8.78 
8 *120:88 *1042:A2 1.96 
9 *120:88 *982:B 16.67 
10 *120:78 *1058:B 6.45 
11 *120:76 *993:A 1.6 
*END

*D_NET *121 0.0223785
*CONN
*I *987:A2 I *D sky130_fd_sc_hd__o21a_1
*I *988:C I *D sky130_fd_sc_hd__or3_2
*I *982:Y O *D sky130_fd_sc_hd__xnor2_2
*CAP
1 *987:A2 0.00230326
2 *988:C 0.00130911
3 *982:Y 0.00306938
4 *121:18 0.00668175
5 *987:A2 *992:B1 4.60556e-05
6 *987:A2 *1006:A1 0.000117224
7 *987:A2 *1026:S 0.00043163
8 *987:A2 *1033:A 0.000174935
9 *987:A2 *1072:B 0.000217672
10 *987:A2 *1080:B 0.00153274
11 *987:A2 *1126:A0 5.5692e-05
12 *987:A2 *1126:A1 0.00033249
13 *987:A2 *124:36 0.00029422
14 *987:A2 *169:35 0.000211655
15 *987:A2 *227:67 0.000106472
16 *987:A2 *270:28 9.26334e-05
17 *988:C *988:B 4.31915e-05
18 *988:C *1006:A3 0.000248749
19 *988:C *1093:B1 6.69362e-05
20 *988:C *1191:A 7.45794e-05
21 *988:C *1194:A 5.87342e-05
22 *988:C *182:6 4.66108e-05
23 *988:C *206:18 0.000114083
24 *121:18 *1093:B1 0.00023478
25 *121:18 *207:18 0.000396383
26 *121:18 *263:18 0.000193129
27 *946:A *121:18 0.000120655
28 *976:A2 *988:C 0
29 *976:B1 *988:C 0.000239255
30 *987:A1 *987:A2 0.000121027
31 *1010:B *987:A2 4.36573e-06
32 *1010:B *988:C 6.88421e-05
33 *1025:A2 *987:A2 0.000121073
34 *1025:A3 *987:A2 9.03508e-06
35 *1097:A2 *121:18 9.22816e-06
36 *1110:A *988:C 0.000153178
37 *1133:A *987:A2 0.000329726
38 *1153:A *988:C 6.56959e-05
39 *1153:A *121:18 0
40 *1177:D *987:A2 0.00020876
41 *1183:D *121:18 4.8843e-05
42 *32:60 *987:A2 1.41563e-05
43 *50:18 *121:18 0.000118511
44 *57:50 *987:A2 0.000277415
45 *82:54 *987:A2 4.41506e-05
46 *82:135 *121:18 0.000900501
47 *89:48 *988:C 6.13364e-05
48 *90:34 *987:A2 0.000134725
49 *90:34 *988:C 5.05716e-06
50 *103:32 *987:A2 6.42917e-05
51 *116:23 *121:18 0.000120178
52 *116:82 *987:A2 5.77533e-05
53 *120:39 *987:A2 0.000626649
*RES
1 *982:Y *121:18 13.3069 
2 *121:18 *988:C 28.7632 
3 *121:18 *987:A2 36.3512 
*END

*D_NET *122 0.0173512
*CONN
*I *1054:B I *D sky130_fd_sc_hd__or2_1
*I *1014:B I *D sky130_fd_sc_hd__nor2_1
*I *984:A I *D sky130_fd_sc_hd__nand2_2
*I *983:X O *D sky130_fd_sc_hd__dlymetal6s2s_1
*CAP
1 *1054:B 0.001473
2 *1014:B 0.00260667
3 *984:A 0.000441061
4 *983:X 5.22655e-05
5 *122:10 0.00304773
6 *122:8 0.00152527
7 *984:A *1078:A2 4.77719e-05
8 *984:A *174:73 0.000111738
9 *1014:B *1054:A 7.67415e-05
10 *1014:B *1060:A 0.000132896
11 *1014:B *1061:B1 0.000132209
12 *1014:B *1098:A1 0.000160538
13 *1014:B *146:32 5.78474e-05
14 *1014:B *174:73 6.55431e-05
15 *1014:B *271:43 0.00135926
16 *1054:B *1058:D 0.000231987
17 *1054:B *1078:A3 0.000148604
18 *1054:B *1087:A0 0.000319919
19 *1054:B *1097:B2 8.88747e-05
20 *1054:B *1144:A0 5.43506e-05
21 *1054:B *155:98 0.000297916
22 *1054:B *197:28 0.00107742
23 *1054:B *218:20 0.000657393
24 *122:8 *1144:A0 1.1392e-05
25 *946:B *1054:B 0.000170625
26 *968:A *1014:B 0.000121043
27 *969:A *1014:B 3.26448e-05
28 *983:A *122:8 1.10085e-05
29 *984:B *984:A 4.66108e-05
30 *1025:A1 *984:A 8.00676e-05
31 *1097:C1 *1054:B 4.11718e-05
32 *1107:S *1014:B 4.46859e-05
33 *1148:S *1014:B 0.000230656
34 *1149:A *1014:B 0.000566757
35 *1158:D *1014:B 8.09126e-05
36 *71:43 *984:A 0.00058649
37 *77:43 *984:A 0.000473333
38 *97:22 *1054:B 0.000430008
39 *98:42 *984:A 0.000187391
40 *98:42 *1014:B 6.94004e-05
*RES
1 *983:X *122:8 2.41 
2 *122:8 *122:10 2 
3 *122:10 *984:A 14.61 
4 *122:10 *1014:B 48.325 
5 *122:8 *1054:B 39.15 
*END

*D_NET *123 0.0192926
*CONN
*I *1020:B I *D sky130_fd_sc_hd__nand2_1
*I *1040:S I *D sky130_fd_sc_hd__mux2_1
*I *985:B1 I *D sky130_fd_sc_hd__o221a_1
*I *984:Y O *D sky130_fd_sc_hd__nand2_2
*CAP
1 *1020:B 0.00114961
2 *1040:S 0.00121222
3 *985:B1 0.000538239
4 *984:Y 0.000116589
5 *123:22 0.00325797
6 *123:6 0.00277372
7 *985:B1 *1035:B1 2.92823e-05
8 *985:B1 *1071:A 0.000699072
9 *985:B1 *1173:CLK 0.000396151
10 *985:B1 *233:19 7.00115e-05
11 *985:B1 *233:133 0.000208453
12 *985:B1 *262:12 7.9642e-06
13 *1020:B *973:A1 0.00135415
14 *1020:B *1020:A 0.000135964
15 *1020:B *1056:C1 0.000107806
16 *1020:B *1098:B1 2.86691e-05
17 *1020:B *221:43 0.00100677
18 *1020:B *251:16 0.000992303
19 *1040:S *1035:B1 4.66108e-05
20 *1040:S *1040:A0 1.91597e-05
21 *1040:S *1048:B 0.000581521
22 *1040:S *1067:B 0.000191343
23 *1040:S *187:24 5.6314e-05
24 *1040:S *233:137 0.000165732
25 *1040:S *233:143 8.41384e-05
26 *1040:S *255:83 0.000581473
27 *123:6 *973:A1 0.000155601
28 *123:22 *1032:A1 5.83121e-06
29 *123:22 *1035:A1_N 0.000509084
30 *123:22 *1071:A 2.97032e-05
31 *123:22 *1094:A1 1.7635e-05
32 *123:22 *1094:A2 9.83106e-05
33 *123:22 *1097:B2 6.95177e-05
34 *123:22 *1140:A 0.000105295
35 *123:22 *174:73 0.000127658
36 *123:22 *251:16 1.19928e-05
37 *123:22 *257:14 0.000193113
38 *123:22 *261:14 0.000237344
39 *123:22 *262:12 6.88204e-05
40 *959:A3 *985:B1 9.387e-06
41 *959:A3 *123:22 0.000104079
42 *964:A *985:B1 9.12797e-05
43 *965:A *123:22 3.36118e-05
44 *985:C1 *985:B1 6.83182e-05
45 *985:C1 *123:22 0.000180428
46 *1130:A *985:B1 1.08758e-05
47 *1157:D *1040:S 2.1553e-05
48 *1162:D *123:22 3.51254e-06
49 *65:14 *1020:B 0.00121943
50 *119:46 *123:22 0.000108972
*RES
1 *984:Y *123:6 3.085 
2 *123:6 *123:22 29.79 
3 *123:22 *985:B1 16.56 
4 *123:22 *1040:S 24.645 
5 *123:6 *1020:B 36.53 
*END

*D_NET *124 0.0116981
*CONN
*I *986:B1 I *D sky130_fd_sc_hd__a21o_1
*I *999:B1 I *D sky130_fd_sc_hd__a21oi_1
*I *985:X O *D sky130_fd_sc_hd__o221a_1
*CAP
1 *986:B1 0.000904181
2 *999:B1 2.54062e-05
3 *985:X 0.00130194
4 *124:38 0.00178843
5 *124:36 0.00216078
6 *986:B1 *957:A 1.58201e-05
7 *986:B1 *986:A1 0.000146753
8 *986:B1 *987:B1 7.75093e-05
9 *986:B1 *999:A1 9.80032e-06
10 *986:B1 *125:6 1.83756e-05
11 *986:B1 *263:50 2.73058e-05
12 *999:B1 *999:A1 3.80003e-05
13 *124:36 *1086:A 0.000459335
14 *124:36 *1099:A 0.000119242
15 *124:36 *1099:B 1.95987e-05
16 *124:36 *1101:A_N 8.35068e-05
17 *124:36 *1109:A1 0.000120655
18 *124:36 *1122:A1 0.000415127
19 *124:36 *138:32 0.00126442
20 *124:36 *169:35 1.81253e-05
21 *124:38 *999:A1 2.16538e-05
22 *124:38 *999:A2 0.00106643
23 *124:38 *138:32 2.19562e-06
24 *964:A *124:36 1.56428e-05
25 *974:B *986:B1 0.000172635
26 *986:A2 *986:B1 4.7003e-05
27 *987:A2 *124:36 0.00029422
28 *1143:A *986:B1 8.0168e-05
29 *32:60 *124:36 0
30 *56:26 *986:B1 8.94959e-05
31 *64:68 *124:36 8.53307e-05
32 *82:18 *986:B1 0.000157551
33 *115:14 *124:36 8.53307e-05
34 *116:98 *124:36 0.000226575
35 *120:39 *124:36 0.000339616
*RES
1 *985:X *124:36 44.51 
2 *124:36 *124:38 10.8713 
3 *124:38 *999:B1 2.33875 
4 *124:38 *986:B1 19.1038 
*END

*D_NET *125 0.0126433
*CONN
*I *988:B I *D sky130_fd_sc_hd__or3_2
*I *987:B1 I *D sky130_fd_sc_hd__o21a_1
*I *986:X O *D sky130_fd_sc_hd__a21o_1
*CAP
1 *988:B 0.000897616
2 *987:B1 0.00198641
3 *986:X 6.54309e-05
4 *125:6 0.00294946
5 *987:B1 *957:A 4.00045e-05
6 *987:B1 *975:B 0
7 *987:B1 *986:A1 0.000594005
8 *987:B1 *992:B1 0.00029153
9 *987:B1 *999:A2 0.000182391
10 *987:B1 *1077:A1 5.83121e-06
11 *987:B1 *1077:C1 0.000255949
12 *987:B1 *1080:B 0.000670733
13 *987:B1 *1086:A 0.000598201
14 *987:B1 *1099:A 0.0005172
15 *987:B1 *1126:A1 8.4031e-05
16 *987:B1 *127:51 0.000139053
17 *987:B1 *138:32 0.000398912
18 *987:B1 *174:112 1.19928e-05
19 *987:B1 *205:24 0.000505328
20 *987:B1 *227:67 0.00051669
21 *987:B1 *234:65 5.05774e-06
22 *988:B *1006:A3 0
23 *988:B *1043:A 2.83579e-05
24 *988:B *1043:B 0.000136968
25 *988:B *1052:A1 0.000323722
26 *988:B *1059:A 0
27 *988:B *1099:A 0.000132842
28 *988:B *182:6 4.66108e-05
29 *988:B *216:79 1.00941e-05
30 *974:B *987:B1 4.72543e-05
31 *976:A2 *988:B 0.000405651
32 *976:B1 *988:B 0
33 *986:A2 *987:B1 8.52845e-05
34 *986:B1 *987:B1 7.75093e-05
35 *986:B1 *125:6 1.83756e-05
36 *988:C *988:B 4.31915e-05
37 *1116:A *987:B1 0.000194807
38 *1118:A *987:B1 5.66369e-05
39 *1143:A *987:B1 0.000133628
40 *1182:D *987:B1 0.000121366
41 *71:14 *987:B1 2.93678e-05
42 *82:12 *988:B 0
43 *82:18 *125:6 7.11235e-06
44 *90:34 *125:6 2.86975e-05
*RES
1 *986:X *125:6 2.74 
2 *125:6 *987:B1 48.1368 
3 *125:6 *988:B 22.685 
*END

*D_NET *126 0.0163542
*CONN
*I *1032:B1 I *D sky130_fd_sc_hd__a21oi_2
*I *274:DIODE I *D sky130_fd_sc_hd__diode_2
*I *989:A I *D sky130_fd_sc_hd__or2b_1
*I *987:X O *D sky130_fd_sc_hd__o21a_1
*CAP
1 *1032:B1 0.000826955
2 *274:DIODE 0
3 *989:A 0.000151276
4 *987:X 0.00014057
5 *126:28 0.00114246
6 *126:22 0.00254059
7 *126:10 0.00251693
8 *1032:B1 *1041:A0 0.000164886
9 *1032:B1 *1154:A 0.000141572
10 *1032:B1 *171:20 0.000802862
11 *1032:B1 *174:73 8.7152e-06
12 *126:10 *1077:A1 6.07575e-06
13 *126:10 *1077:B1 4.41506e-05
14 *126:10 *1077:C1 1.56428e-05
15 *126:10 *1085:A0 1.03592e-05
16 *126:22 *1006:A1 0.000701956
17 *126:22 *1080:B 0.000239461
18 *126:22 *1085:A0 0.000123698
19 *126:22 *1195:A 0.000883589
20 *126:22 *129:28 0.00041279
21 *126:22 *205:24 6.60257e-06
22 *126:28 *1092:A 1.28442e-05
23 *126:28 *166:26 0.000101386
24 *937:A *126:22 0.000321891
25 *965:A *1032:B1 1.90887e-05
26 *1027:A *126:10 1.7635e-05
27 *1027:A *126:22 0.00121373
28 *1118:A *126:22 0.000680361
29 *1123:A *126:22 0.000109207
30 *1131:A *1032:B1 0.000427955
31 *1150:S *1032:B1 0.000119576
32 *1167:D *989:A 0.000114791
33 *1167:D *126:28 0.00127913
34 *1170:D *126:22 4.6075e-05
35 *56:26 *126:28 0.000101666
36 *71:43 *1032:B1 0.00067306
37 *96:28 *126:22 9.61521e-05
38 *115:14 *126:22 0.000138546
*RES
1 *987:X *126:10 5.3175 
2 *126:10 *126:22 44.8125 
3 *126:22 *126:28 16.44 
4 *126:28 *989:A 3.79 
5 *126:28 *274:DIODE 1.6 
6 *126:10 *1032:B1 16.9512 
*END

*D_NET *127 0.0134809
*CONN
*I *1032:A2 I *D sky130_fd_sc_hd__a21oi_2
*I *989:B_N I *D sky130_fd_sc_hd__or2b_1
*I *988:X O *D sky130_fd_sc_hd__or3_2
*CAP
1 *1032:A2 0.000249219
2 *989:B_N 0.000157261
3 *988:X 8.25371e-05
4 *127:51 0.00270232
5 *127:10 0.0026929
6 *989:B_N *180:43 0.000183852
7 *989:B_N *206:18 0
8 *1032:A2 *1032:A1 4.77719e-05
9 *1032:A2 *1038:A 4.66108e-05
10 *1032:A2 *1102:A 2.93517e-05
11 *1032:A2 *251:16 0.000111178
12 *1032:A2 *257:14 8.247e-05
13 *127:10 *1044:B 5.31159e-05
14 *127:10 *180:43 0.000113222
15 *127:10 *182:49 2.49909e-05
16 *127:51 *940:A 0.000521387
17 *127:51 *975:B 0
18 *127:51 *976:A1 0.000107904
19 *127:51 *977:A_N 1.17602e-05
20 *127:51 *1043:A 0
21 *127:51 *1043:B 0.000988389
22 *127:51 *1044:B 0.000126737
23 *127:51 *1059:A 0
24 *127:51 *1062:B1 5.725e-05
25 *127:51 *1094:A2 0.000231452
26 *127:51 *1095:A2 2.79424e-05
27 *127:51 *1107:A0 5.64022e-05
28 *127:51 *1113:A0 0.00127877
29 *127:51 *1193:A 0.000279075
30 *127:51 *1196:A 1.57264e-05
31 *127:51 *145:47 0
32 *127:51 *178:71 0.000215828
33 *127:51 *198:28 0.000178539
34 *127:51 *216:14 0
35 *127:51 *235:31 0
36 *127:51 *239:76 0
37 *127:51 *239:93 7.65498e-05
38 *127:51 *267:26 0
39 *987:B1 *127:51 0.000139053
40 *1024:B *127:51 0.000169453
41 *1031:B *1032:A2 6.72833e-06
42 *1031:B *127:51 7.18107e-06
43 *1037:B1 *127:51 9.57912e-05
44 *1041:S *127:51 1.43077e-05
45 *1125:A *127:51 0
46 *1133:A *127:51 0.000832662
47 *1143:A *127:51 7.93611e-06
48 *1167:D *989:B_N 0.000126687
49 *1181:D *127:51 1.7635e-05
50 *57:36 *127:51 3.89822e-05
51 *70:32 *127:51 1.90894e-05
52 *82:12 *127:51 2.21074e-05
53 *83:94 *127:51 0.000575308
54 *112:41 *127:51 0.000497953
55 *118:63 *127:51 0.000159489
*RES
1 *988:X *127:10 5.43 
2 *127:10 *989:B_N 7.23 
3 *127:10 *127:51 48.1245 
4 *127:51 *1032:A2 6.19 
*END

*D_NET *128 0.0178135
*CONN
*I *992:A2 I *D sky130_fd_sc_hd__a21oi_2
*I *990:B I *D sky130_fd_sc_hd__or2_1
*I *989:X O *D sky130_fd_sc_hd__or2b_1
*CAP
1 *992:A2 3.01964e-05
2 *990:B 0.000265391
3 *989:X 0.000723597
4 *128:38 0.0028874
5 *128:12 0.0033758
6 *990:B *949:A_N 1.23633e-05
7 *990:B *1158:CLK 0.000489977
8 *990:B *170:43 0.000337693
9 *990:B *234:121 7.9642e-06
10 *990:B *256:22 2.87686e-05
11 *128:12 *1029:A1 9.85407e-05
12 *128:12 *1050:A0 0.000360481
13 *128:12 *1080:B 6.98164e-05
14 *128:12 *1196:A 0.000455716
15 *128:12 *1197:A 0.00128459
16 *128:12 *166:26 0.000130618
17 *128:12 *180:43 0.000211752
18 *128:38 *1029:A1 0
19 *128:38 *1050:A0 7.02675e-06
20 *128:38 *1055:B1 3.67385e-05
21 *128:38 *1079:A2 7.98045e-05
22 *128:38 *1098:A2 0
23 *128:38 *141:14 6.4925e-05
24 *128:38 *167:38 0.000351664
25 *128:38 *168:20 0.0012538
26 *128:38 *207:18 0.000879573
27 *128:38 *247:71 0.00068432
28 an[3] *128:38 0
29 seg[4] *128:12 1.97486e-05
30 seg[5] *128:12 2.05641e-05
31 *946:A *128:38 5.92326e-05
32 *953:A1 *128:38 0.000150969
33 *967:A *128:38 0.0012796
34 *980:B *128:38 0.000674935
35 *990:A *990:B 2.99518e-06
36 *992:A1 *128:38 7.56969e-05
37 *1037:A1 *128:12 1.32017e-05
38 *1037:A2 *128:12 1.32711e-05
39 *1097:A2 *128:38 2.23111e-05
40 *1105:C *128:38 1.52184e-05
41 *1153:A *128:38 0.000202302
42 *1159:D *990:B 4.77769e-05
43 *1167:D *128:12 2.31329e-05
44 *1183:D *128:38 0.000149391
45 *82:162 *128:38 0.000594719
46 *88:12 *990:B 7.28465e-06
47 *98:42 *128:38 8.31073e-05
48 *106:57 *990:B 0
49 *110:53 *128:38 0.000107452
50 *116:23 *128:38 3.79555e-05
51 *118:63 *128:38 8.41307e-05
*RES
1 *989:X *128:12 28.175 
2 *128:12 *128:38 45.7402 
3 *128:38 *990:B 10.4025 
4 *128:12 *992:A2 2.05 
*END

*D_NET *129 0.0106718
*CONN
*I *1016:A1 I *D sky130_fd_sc_hd__a22o_4
*I *990:X O *D sky130_fd_sc_hd__or2_1
*CAP
1 *1016:A1 0.00134125
2 *990:X 0.00119895
3 *129:28 0.0025402
4 *1016:A1 *1124:A0 0.000305081
5 *1016:A1 *1170:CLK 0.000925068
6 *129:28 *1035:A1_N 0.000199983
7 *129:28 *1077:A1 0.000129127
8 *129:28 *1077:C1 0.000330182
9 *129:28 *1080:B 0.000240687
10 *129:28 *1085:A0 0.000796968
11 *129:28 *205:24 0.000948677
12 *129:28 *210:49 0.000328119
13 *129:28 *234:121 2.7493e-05
14 *129:28 *256:22 0.000121032
15 *938:A *1016:A1 0.000135352
16 *990:A *129:28 5.63183e-05
17 *1116:A *129:28 6.75834e-05
18 *1124:S *1016:A1 0.000138455
19 *1170:D *1016:A1 0.000234753
20 *1180:D *129:28 5.06382e-06
21 *99:43 *129:28 1.08384e-05
22 *100:32 *129:28 0.00017783
23 *126:22 *129:28 0.00041279
*RES
1 *990:X *129:28 35.75 
2 *129:28 *1016:A1 21.505 
*END

*D_NET *130 0.0242223
*CONN
*I *992:B1 I *D sky130_fd_sc_hd__a21oi_2
*I *1060:A I *D sky130_fd_sc_hd__clkbuf_1
*I *1034:B1 I *D sky130_fd_sc_hd__a21oi_1
*I *991:X O *D sky130_fd_sc_hd__o21a_2
*CAP
1 *992:B1 0.00300583
2 *1060:A 0.0021073
3 *1034:B1 3.29085e-05
4 *991:X 0
5 *130:10 0.00243446
6 *130:4 0.00330008
7 *992:B1 *957:A 4.3249e-05
8 *992:B1 *1004:A1 6.33103e-05
9 *992:B1 *1016:A2 0.000112944
10 *992:B1 *1034:A2 4.8798e-05
11 *992:B1 *1043:B 4.23528e-05
12 *992:B1 *1056:B1 0.000154981
13 *992:B1 *1080:B 0.000120335
14 *992:B1 *1093:B1 5.74644e-06
15 *992:B1 *1099:B 0.000202519
16 *992:B1 *1111:A0 0.000856493
17 *992:B1 *1122:A1 0.000219932
18 *992:B1 *197:28 3.86814e-05
19 *992:B1 *218:20 4.0031e-05
20 *992:B1 *231:22 3.68999e-05
21 *992:B1 *239:93 0.00015222
22 *992:B1 *260:40 0.000119242
23 *1034:B1 *1086:A 0.000119242
24 *1034:B1 *169:35 0.000118081
25 *1060:A *1015:C 0
26 *1060:A *1030:A 1.7635e-05
27 *1060:A *1034:A2 3.08529e-05
28 *1060:A *1041:A1 2.39986e-05
29 *1060:A *1048:A 0.000112458
30 *1060:A *1048:B 6.13375e-05
31 *1060:A *1061:A2 0
32 *1060:A *1061:B1 5.23032e-05
33 *1060:A *1076:A1 7.64128e-05
34 *1060:A *1079:B1 3.99332e-05
35 *1060:A *1095:B1 0.00026415
36 *1060:A *161:32 0.000429006
37 *130:10 *1030:A 0.000167963
38 *130:10 *1170:CLK 8.53224e-05
39 *130:10 *138:32 2.35435e-05
40 *130:10 *231:22 0.000850564
41 *968:A *1060:A 0
42 *970:A *1060:A 0
43 *981:A2 *992:B1 7.40049e-05
44 *987:A2 *992:B1 4.60556e-05
45 *987:B1 *992:B1 0.00029153
46 *992:A1 *992:B1 0.000105967
47 *995:A *992:B1 2.43541e-05
48 *1014:B *1060:A 0.000132896
49 *1142:A *1060:A 0.0009186
50 *1147:A *992:B1 0.000153771
51 *1160:D *1060:A 0.00109672
52 *1164:D *1060:A 9.67081e-06
53 *1164:D *130:10 0.000169307
54 *1177:D *992:B1 1.88602e-05
55 *1182:D *992:B1 0.000111869
56 *48:38 *992:B1 2.22315e-05
57 *57:36 *992:B1 7.8632e-06
58 *57:50 *992:B1 1.33757e-05
59 *64:88 *992:B1 0.00111885
60 *64:88 *1060:A 0.000110762
61 *71:14 *992:B1 0.000498614
62 *84:83 *992:B1 4.66108e-05
63 *84:83 *130:10 0.000146502
64 *84:89 *130:10 0.000450971
65 *84:130 *992:B1 0.000105271
66 *90:34 *992:B1 0.000169509
67 *100:65 *992:B1 0.000107136
68 *106:80 *1060:A 3.23136e-05
69 *113:16 *992:B1 0.00139475
70 *116:98 *992:B1 0.000219289
71 *118:63 *992:B1 0.000299336
72 *120:26 *1060:A 0.000714141
*RES
1 *991:X *130:4 1.6 
2 *130:4 *130:10 12.185 
3 *130:10 *1034:B1 4.74 
4 *130:10 *1060:A 26.57 
5 *130:4 *992:B1 33.6913 
*END

*D_NET *131 0.0175664
*CONN
*I *1016:A2 I *D sky130_fd_sc_hd__a22o_4
*I *992:Y O *D sky130_fd_sc_hd__a21oi_2
*CAP
1 *1016:A2 0.00474742
2 *992:Y 0.00474742
3 *1016:A2 *1006:A1 0.000337481
4 *1016:A2 *1016:B2 9.58678e-06
5 *1016:A2 *1024:A 1.88656e-05
6 *1016:A2 *1043:B 0
7 *1016:A2 *1105:A 0.000135206
8 *1016:A2 *1117:D_N 7.56727e-05
9 *1016:A2 *1154:A 0.000463224
10 *1016:A2 *1194:A 7.08519e-05
11 *1016:A2 *150:48 0.000215636
12 *1016:A2 *184:20 0.00014884
13 *1016:A2 *191:54 2.54468e-05
14 *1016:A2 *235:60 9.20565e-05
15 *1016:A2 *239:93 0.00054231
16 *937:A *1016:A2 0.000881606
17 *939:A *1016:A2 0.000489075
18 *957:B *1016:A2 3.7996e-05
19 *967:A *1016:A2 2.01841e-05
20 *970:B *1016:A2 0.000217882
21 *992:A1 *1016:A2 6.13404e-05
22 *992:B1 *1016:A2 0.000112944
23 *1105:C *1016:A2 2.00923e-05
24 *1118:A *1016:A2 1.66925e-05
25 *1131:A *1016:A2 0.000190428
26 *1133:A *1016:A2 8.23114e-05
27 *1163:D *1016:A2 0.00214205
28 *1172:D *1016:A2 9.58678e-06
29 *48:38 *1016:A2 0.00119332
30 *78:51 *1016:A2 1.66367e-05
31 *81:72 *1016:A2 6.17432e-05
32 *82:135 *1016:A2 7.33639e-05
33 *115:14 *1016:A2 0.000309131
*RES
1 *992:Y *1016:A2 29.7357 
*END

*D_NET *132 0.00512772
*CONN
*I *994:A I *D sky130_fd_sc_hd__buf_1
*I *993:X O *D sky130_fd_sc_hd__clkbuf_1
*CAP
1 *994:A 0.00177328
2 *993:X 0.00177328
3 *994:A *1169:CLK 0.000195973
4 *994:A *170:43 0.000120182
5 *994:A *233:147 0.000229049
6 *994:A *233:154 4.98756e-05
7 *994:A *237:18 0.000107697
8 *964:A *994:A 3.47763e-05
9 *37:16 *994:A 0.000108705
10 *88:12 *994:A 2.36716e-05
11 *110:53 *994:A 0.000518099
12 *110:70 *994:A 0.00019312
*RES
1 *993:X *994:A 29.97 
*END

*D_NET *133 0.00733678
*CONN
*I *1051:S I *D sky130_fd_sc_hd__mux2_1
*I *1001:A I *D sky130_fd_sc_hd__and2_1
*I *994:X O *D sky130_fd_sc_hd__buf_1
*CAP
1 *1051:S 0.000369234
2 *1001:A 0.000193139
3 *994:X 0.00128488
4 *133:8 0.00184725
5 *1001:A *221:43 0.000119309
6 *1051:S *1051:A0 0.000135341
7 *1051:S *1051:A1 0.000224911
8 *1051:S *1120:A0 9.23635e-05
9 *133:8 *161:32 0.000303289
10 *1120:S *1001:A 0.000736818
11 *1120:S *1051:S 0.000474894
12 *1141:A *133:8 0.000271385
13 *1159:D *133:8 6.09603e-05
14 *19:16 *1001:A 0.000738485
15 *19:16 *1051:S 8.35683e-05
16 *42:14 *1051:S 0.000400946
*RES
1 *994:X *133:8 18.54 
2 *133:8 *1001:A 12.375 
3 *133:8 *1051:S 15.18 
*END

*D_NET *134 0.00868585
*CONN
*I *1024:A I *D sky130_fd_sc_hd__nand2_1
*I *1000:A1 I *D sky130_fd_sc_hd__a21oi_1
*I *995:X O *D sky130_fd_sc_hd__buf_1
*CAP
1 *1024:A 0.00156268
2 *1000:A1 0.000124469
3 *995:X 0.000390181
4 *134:10 0.00207733
5 *1000:A1 *139:18 1.87038e-05
6 *1024:A *943:A 1.91597e-05
7 *1024:A *1016:B2 4.88367e-05
8 *1024:A *1028:B1 4.89395e-05
9 *1024:A *1138:A 3.74571e-05
10 *1024:A *150:14 0.00151394
11 *1024:A *163:18 0.000694731
12 *1024:A *169:16 5.0096e-05
13 *1024:A *239:39 4.88504e-05
14 *1024:A *239:50 0.000408062
15 *134:10 *1076:A1 0
16 *134:10 *1111:A0 2.0187e-05
17 *134:10 *173:32 4.80031e-05
18 *134:10 *233:47 0.000208051
19 *943:B *1024:A 0.000137031
20 *943:C *1024:A 2.28635e-05
21 *947:B *1024:A 0.000497026
22 *970:B *1024:A 1.7635e-05
23 *1000:B1 *1024:A 0.000138769
24 *1000:B1 *134:10 7.9642e-06
25 *1016:A2 *1024:A 1.88656e-05
26 *1024:B *1024:A 1.67131e-05
27 *1111:S *134:10 0.000153816
28 *1113:S *1024:A 1.42674e-05
29 *1136:B *1024:A 4.87939e-05
30 *1157:D *134:10 0.000104533
31 *1163:D *1024:A 0
32 *1163:D *134:10 0
33 *31:28 *1024:A 8.35157e-05
34 *49:39 *1024:A 0.000104371
*RES
1 *995:X *134:10 10.635 
2 *134:10 *1000:A1 4.845 
3 *134:10 *1024:A 43.24 
*END

*D_NET *135 0.00844787
*CONN
*I *997:A I *D sky130_fd_sc_hd__buf_1
*I *996:X O *D sky130_fd_sc_hd__buf_1
*CAP
1 *997:A 8.30663e-05
2 *996:X 0.00157356
3 *135:10 0.00165663
4 *997:A *216:85 0.000235378
5 *135:10 *1029:A1 0
6 *135:10 *1045:A 0.0013976
7 *135:10 *1050:A1 3.83194e-05
8 *135:10 *150:48 0.000270312
9 *135:10 *180:14 0.00030537
10 *135:10 *182:49 0.00128687
11 *135:10 *216:83 0
12 *135:10 *260:40 0.000118081
13 an[2] *135:10 0
14 *936:A *135:10 0.000104871
15 *967:A *135:10 0.000126373
16 *996:A *135:10 2.49909e-05
17 *1050:S *135:10 8.23457e-05
18 *30:14 *997:A 1.08737e-05
19 *78:6 *135:10 0.000446828
20 *106:6 *135:10 0.000301487
21 *106:37 *135:10 0.000321614
22 *108:65 *135:10 6.33103e-05
*RES
1 *996:X *135:10 48.36 
2 *135:10 *997:A 5.775 
*END

*D_NET *136 0.019853
*CONN
*I *998:A I *D sky130_fd_sc_hd__clkbuf_1
*I *997:X O *D sky130_fd_sc_hd__buf_1
*CAP
1 *998:A 0.00485587
2 *997:X 0.00485587
3 *998:A *950:B 0.000938935
4 *998:A *1041:A0 0.00021409
5 *998:A *1061:A2 0.00126799
6 *998:A *1099:B 0.00183246
7 *998:A *155:143 5.56013e-05
8 *998:A *163:18 0.000234103
9 *998:A *185:63 0.000843305
10 *998:A *211:26 1.29465e-05
11 *998:A *216:85 0.000151918
12 an[1] *998:A 6.90776e-05
13 *963:A_N *998:A 0.0034328
14 *964:A *998:A 0.000183622
15 *981:A2 *998:A 0.000351522
16 *1131:A *998:A 0.00021846
17 *58:28 *998:A 0.000334396
*RES
1 *997:X *998:A 26.4311 
*END

*D_NET *137 0.00848052
*CONN
*I *999:A2 I *D sky130_fd_sc_hd__a21oi_1
*I *998:X O *D sky130_fd_sc_hd__clkbuf_1
*CAP
1 *999:A2 0.00132346
2 *998:X 0.00132346
3 *999:A2 *999:A1 3.09774e-05
4 *999:A2 *1086:A 5.63183e-05
5 *999:A2 *1099:A 0.000813048
6 *999:A2 *1099:B 1.79862e-05
7 *999:A2 *138:32 0.000314838
8 *999:A2 *155:133 0.000143854
9 *999:A2 *227:67 4.45086e-05
10 *999:A2 *231:22 0.000270732
11 *981:A2 *999:A2 3.30102e-05
12 *987:B1 *999:A2 0.000182391
13 *1023:S *999:A2 0.000781981
14 *1111:S *999:A2 0.00022792
15 *1135:A *999:A2 0.00101719
16 *1166:D *999:A2 5.47236e-05
17 *64:88 *999:A2 0.000777688
18 *124:38 *999:A2 0.00106643
*RES
1 *998:X *999:A2 38.1566 
*END

*D_NET *138 0.0125122
*CONN
*I *1023:A0 I *D sky130_fd_sc_hd__mux2_1
*I *1000:A2 I *D sky130_fd_sc_hd__a21oi_1
*I *999:Y O *D sky130_fd_sc_hd__a21oi_1
*CAP
1 *1023:A0 0.000643413
2 *1000:A2 2.91559e-05
3 *999:Y 0.00207972
4 *138:34 0.000717119
5 *138:32 0.00212427
6 *1000:A2 *1076:A1 4.41506e-05
7 *1000:A2 *139:18 8.23457e-05
8 *1023:A0 *1023:A1 6.90044e-05
9 *1023:A0 *1026:A0 8.52763e-05
10 *1023:A0 *249:33 0.000547929
11 *1023:A0 *265:16 9.22294e-06
12 *138:32 *999:A1 6.4155e-05
13 *138:32 *1017:B 0.000147892
14 *138:32 *1099:A 0.000135464
15 *138:32 *1170:CLK 0.000194449
16 *138:32 *231:22 0.0006488
17 *138:32 *233:77 0.000379079
18 *138:34 *1136:A 7.9642e-06
19 *138:34 *249:33 0.000111213
20 *987:B1 *138:32 0.000398912
21 *991:A1 *138:32 4.41506e-05
22 *991:B1 *138:32 6.4485e-05
23 *999:A2 *138:32 0.000314838
24 *1131:A *1023:A0 0.000100193
25 *1163:D *1023:A0 0.000660116
26 *1163:D *138:34 0.000109786
27 *1183:RESET_B *1023:A0 0
28 *49:61 *138:32 8.23457e-05
29 *82:54 *138:32 0.000146589
30 *84:83 *138:32 0.00104373
31 *84:89 *138:32 0.000136271
32 *124:36 *138:32 0.00126442
33 *124:38 *138:32 2.19562e-06
34 *130:10 *138:32 2.35435e-05
*RES
1 *999:Y *138:32 49.33 
2 *138:32 *138:34 1.38 
3 *138:34 *1000:A2 4.395 
4 *138:34 *1023:A0 18.03 
*END

*D_NET *139 0.00771779
*CONN
*I *1051:A0 I *D sky130_fd_sc_hd__mux2_1
*I *1001:B I *D sky130_fd_sc_hd__and2_1
*I *1000:Y O *D sky130_fd_sc_hd__a21oi_1
*CAP
1 *1051:A0 0.000728302
2 *1001:B 8.73496e-05
3 *1000:Y 0.000805172
4 *139:18 0.00162082
5 *1051:A0 *1041:A1 3.89692e-05
6 *1051:A0 *1048:A 0.000110949
7 *1051:A0 *1051:A1 0.000224911
8 *1051:A0 *1090:A 0.00012792
9 *1051:A0 *1142:B 0
10 *1051:A0 *153:24 0.00061929
11 *1051:A0 *238:12 0
12 *139:18 *1016:B1 0.00026136
13 *139:18 *1076:A1 6.97024e-05
14 *139:18 *1124:A1 6.26429e-05
15 *139:18 *173:32 5.66767e-05
16 *139:18 *215:12 0.000285891
17 *139:18 *239:22 0.000119056
18 *981:A3 *1051:A0 3.09233e-05
19 *981:A3 *139:18 0.000280051
20 *1000:A1 *139:18 1.87038e-05
21 *1000:A2 *139:18 8.23457e-05
22 *1051:S *1051:A0 0.000135341
23 *1120:S *1051:A0 0.000871431
24 *1145:A *139:18 0.000293606
25 *1159:D *1051:A0 9.78596e-05
26 *1159:D *139:18 0.000378201
27 *28:24 *139:18 7.98062e-05
28 *109:40 *139:18 0.000230507
*RES
1 *1000:Y *139:18 26.7763 
2 *139:18 *1001:B 2.755 
3 *139:18 *1051:A0 26.915 
*END

*D_NET *140 0.00446695
*CONN
*I *1016:B1 I *D sky130_fd_sc_hd__a22o_4
*I *1001:X O *D sky130_fd_sc_hd__and2_1
*CAP
1 *1016:B1 0.000807814
2 *1001:X 0.000807814
3 *1016:B1 *1083:B 7.58994e-05
4 *1016:B1 *1090:A 0.000286961
5 *1016:B1 *1103:A0 1.92979e-05
6 *1016:B1 *1124:A0 0.000253861
7 *1016:B1 *215:12 0.000430957
8 *1016:B1 *239:39 0.000824928
9 *981:A3 *1016:B1 0.000235558
10 *1124:S *1016:B1 0.000296162
11 *19:16 *1016:B1 0.000166343
12 *139:18 *1016:B1 0.00026136
*RES
1 *1001:X *1016:B1 32.91 
*END

*D_NET *141 0.0205889
*CONN
*I *1055:B1 I *D sky130_fd_sc_hd__o31a_1
*I *1009:B1 I *D sky130_fd_sc_hd__o21a_1
*I *1006:A1 I *D sky130_fd_sc_hd__a31oi_4
*I *1002:X O *D sky130_fd_sc_hd__mux2_2
*CAP
1 *1055:B1 0.000741077
2 *1009:B1 0.000112225
3 *1006:A1 0.00142268
4 *1002:X 0.000526338
5 *141:18 0.00234881
6 *141:14 0.00208133
7 *1006:A1 *1009:A2 0.000131138
8 *1006:A1 *1017:B 8.05462e-07
9 *1006:A1 *1093:B1 0.000146285
10 *1006:A1 *1195:A 0.000113013
11 *1006:A1 *145:8 4.77807e-05
12 *1006:A1 *145:47 7.84488e-05
13 *1006:A1 *157:30 3.92756e-05
14 *1006:A1 *178:18 0.000496172
15 *1006:A1 *227:67 0.000113174
16 *1006:A1 *247:18 0.000147949
17 *1006:A1 *247:71 0.000125653
18 *1006:A1 *269:26 9.20565e-05
19 *1009:B1 *1009:A2 1.56428e-05
20 *1009:B1 *1039:B1 1.7635e-05
21 *1009:B1 *1128:A0 7.33639e-05
22 *1009:B1 *146:32 1.7635e-05
23 *1055:B1 *1055:A2 0.00137715
24 *1055:B1 *1144:A0 0.000355555
25 *1055:B1 *168:49 0.000440954
26 *141:14 *1075:A1 0.000117826
27 *141:14 *247:71 0.000540348
28 *141:18 *1038:B 9.12048e-05
29 *141:18 *1048:A 7.54198e-05
30 *141:18 *1148:A0 2.92733e-05
31 *141:18 *146:32 0.000932647
32 *141:18 *178:18 0.000137712
33 *141:18 *247:71 3.44021e-05
34 *946:A *1055:B1 5.27124e-05
35 *946:A *141:14 0.00068124
36 *953:A1 *141:14 5.63183e-05
37 *959:A3 *141:14 0.000134511
38 *976:C1 *1006:A1 0.00038128
39 *987:A2 *1006:A1 0.000117224
40 *1008:B1 *141:18 0.000509349
41 *1009:A1 *1009:B1 4.77757e-05
42 *1010:B *1006:A1 0.000100368
43 *1016:A2 *1006:A1 0.000337481
44 *1024:B *1006:A1 0.000328489
45 *1055:A1 *1055:B1 0.000264677
46 *1137:A *141:14 0.00026538
47 *1144:S *141:14 0.000514575
48 *1158:D *1006:A1 4.12831e-05
49 *77:49 *141:14 2.9686e-05
50 *82:54 *1006:A1 0.000570462
51 *84:14 *1055:B1 0.00100973
52 *89:22 *1009:B1 7.53239e-05
53 *90:42 *1009:B1 0.00015806
54 *95:73 *1006:A1 0.000263753
55 *100:65 *1006:A1 1.66065e-05
56 *108:10 *1055:B1 0.000317618
57 *108:18 *1055:B1 3.57702e-05
58 *115:14 *1006:A1 0.000331762
59 *118:63 *1006:A1 0.000122821
60 *126:22 *1006:A1 0.000701956
61 *128:38 *1055:B1 3.67385e-05
62 *128:38 *141:14 6.4925e-05
*RES
1 *1002:X *141:14 11.5909 
2 *141:14 *141:18 2.77747 
3 *141:18 *1006:A1 30.0806 
4 *141:18 *1009:B1 6.4429 
5 *141:14 *1055:B1 27.6029 
*END

*D_NET *142 0.00336535
*CONN
*I *1004:C1 I *D sky130_fd_sc_hd__a211o_1
*I *1003:X O *D sky130_fd_sc_hd__and4b_1
*CAP
1 *1004:C1 0.00045823
2 *1003:X 0.00045823
3 *1004:C1 *972:A1 8.53224e-05
4 *1004:C1 *1004:A1 4.66108e-05
5 *1004:C1 *1062:B1 0.000169448
6 *1004:C1 *1154:A 0.000177015
7 *1004:A2 *1004:C1 0.000255492
8 *1041:S *1004:C1 0.000248519
9 *1096:A *1004:C1 0.00111236
10 *71:20 *1004:C1 8.34281e-06
11 *88:70 *1004:C1 0.000298431
12 *110:78 *1004:C1 2.85364e-05
13 *112:41 *1004:C1 1.88153e-05
*RES
1 *1003:X *1004:C1 21.435 
*END

*D_NET *143 0.00483402
*CONN
*I *1006:A2 I *D sky130_fd_sc_hd__a31oi_4
*I *1004:X O *D sky130_fd_sc_hd__a211o_1
*CAP
1 *1006:A2 0.000989748
2 *1004:X 0.000989748
3 *1006:A2 *1059:A 0.000189594
4 *1006:A2 *218:20 0.000253821
5 *1023:S *1006:A2 0.000140754
6 *1096:A *1006:A2 0.000554003
7 *1125:A *1006:A2 0.000114996
8 *1147:A *1006:A2 0.00113315
9 *101:8 *1006:A2 0.000468209
*RES
1 *1004:X *1006:A2 28.695 
*END

*D_NET *144 0.00639619
*CONN
*I *1006:A3 I *D sky130_fd_sc_hd__a31oi_4
*I *1005:X O *D sky130_fd_sc_hd__or3_2
*CAP
1 *1006:A3 0.00135265
2 *1005:X 0.00135265
3 *1006:A3 *976:A1 0.000539268
4 *1006:A3 *1004:A1 0
5 *1006:A3 *1005:B 0.000179966
6 *1006:A3 *1057:A 5.21806e-05
7 *1006:A3 *1098:A2 0.000683975
8 *1006:A3 *1191:A 4.66108e-05
9 *1006:A3 *1195:A 5.5489e-05
10 *1006:A3 *260:40 0.000294682
11 *976:A2 *1006:A3 1.19928e-05
12 *976:B1 *1006:A3 4.00001e-05
13 *976:C1 *1006:A3 0.00038189
14 *988:B *1006:A3 0
15 *988:C *1006:A3 0.000248749
16 *992:A1 *1006:A3 9.96128e-05
17 *1153:A *1006:A3 0.000765119
18 *1182:RESET_B *1006:A3 1.71207e-05
19 *64:12 *1006:A3 6.15576e-06
20 *115:14 *1006:A3 0.00026807
*RES
1 *1005:X *1006:A3 44.815 
*END

*D_NET *145 0.0192888
*CONN
*I *1017:A I *D sky130_fd_sc_hd__and2_1
*I *1015:A I *D sky130_fd_sc_hd__and3_2
*I *1058:C I *D sky130_fd_sc_hd__and4_1
*I *1043:A I *D sky130_fd_sc_hd__xnor2_2
*I *1006:Y O *D sky130_fd_sc_hd__a31oi_4
*CAP
1 *1017:A 0
2 *1015:A 0.000978309
3 *1058:C 0.000169586
4 *1043:A 0.000574408
5 *1006:Y 1.19353e-05
6 *145:75 0.00231196
7 *145:47 0.00228716
8 *145:8 0.00170944
9 *1015:A *950:B 0.000379376
10 *1015:A *1089:A0 0.000362857
11 *1015:A *1158:CLK 2.10841e-05
12 *1015:A *146:32 0
13 *1015:A *154:18 0
14 *1043:A *1043:B 0.000794597
15 *1043:A *1052:A1 0.000757105
16 *1043:A *239:76 0.000147581
17 *1058:C *1097:B2 0.000156765
18 *145:47 *975:B 0.000491381
19 *145:47 *1003:C 0.000105558
20 *145:47 *1004:A1 0.000773775
21 *145:47 *1017:B 1.21256e-05
22 *145:47 *1018:A 5.83121e-06
23 *145:47 *1072:B 6.59891e-05
24 *145:47 *1182:CLK 4.66108e-05
25 *145:47 *227:67 5.1985e-06
26 *145:47 *234:65 1.53053e-05
27 *145:47 *235:31 4.09813e-05
28 *145:47 *239:76 7.16517e-05
29 *145:47 *258:24 0
30 *145:75 *1003:C 8.23457e-05
31 *145:75 *1017:B 8.33066e-06
32 *145:75 *1039:A1 7.23009e-05
33 *145:75 *1056:A2 0.000307376
34 *145:75 *1072:B 0
35 *145:75 *1089:A0 0.000165632
36 *145:75 *1102:A 0.000141929
37 *145:75 *1128:A0 0.000145947
38 *145:75 *1187:A 1.75055e-05
39 *145:75 *171:20 0.000561166
40 *145:75 *173:32 0.000145963
41 *145:75 *174:73 7.01068e-05
42 *145:75 *244:12 0.0002793
43 *145:75 *248:23 7.9642e-06
44 *145:75 *264:10 0.000125719
45 *952:D *1015:A 0.000448638
46 *959:A1 *1058:C 0.000118081
47 *965:A *1015:A 0.000333419
48 *965:A *145:75 0.000528684
49 *988:B *1043:A 2.83579e-05
50 *1006:A1 *145:8 4.77807e-05
51 *1006:A1 *145:47 7.84488e-05
52 *1008:A2 *1015:A 0
53 *1058:B *1058:C 4.66108e-05
54 *1133:A *145:47 0.000414641
55 *1142:C *1015:A 1.81185e-05
56 *1148:S *1015:A 0.00012289
57 *1158:D *145:75 0.000438275
58 *1172:D *145:47 1.16854e-05
59 *1182:D *145:47 5.24934e-05
60 *57:50 *145:47 0.000185573
61 *77:131 *145:47 0.000549761
62 *81:92 *145:47 0.000217419
63 *82:54 *145:47 0.000374727
64 *88:54 *145:75 0.000143849
65 *98:72 *1058:C 0.000145654
66 *98:79 *1058:C 3.83194e-05
67 *115:14 *145:8 2.69217e-05
68 *118:24 *1043:A 4.51682e-05
69 *118:24 *145:47 3.59531e-06
70 *120:76 *145:75 0.000441492
71 *127:51 *1043:A 0
72 *127:51 *145:47 0
*RES
1 *1006:Y *145:8 4.05 
2 *145:8 *1043:A 18.09 
3 *145:8 *145:47 36.445 
4 *145:47 *145:75 25.3693 
5 *145:75 *1058:C 7.515 
6 *145:75 *1015:A 24.895 
7 *145:47 *1017:A 1.6 
*END

*D_NET *146 0.0121453
*CONN
*I *1008:C1 I *D sky130_fd_sc_hd__a211o_1
*I *1007:X O *D sky130_fd_sc_hd__and4b_1
*CAP
1 *1008:C1 0
2 *1007:X 0.00414199
3 *146:32 0.00414199
4 *146:32 *972:A1 8.7152e-06
5 *146:32 *1008:A1 3.60024e-06
6 *146:32 *1015:C 1.89685e-05
7 *146:32 *1039:B1 0.000106209
8 *146:32 *1055:A2 0
9 *146:32 *1079:A2 0.000130895
10 *146:32 *1089:A0 5.64397e-05
11 *146:32 *1099:B 0.000334604
12 *146:32 *1102:A 0.000178185
13 *146:32 *1128:A0 0.00018461
14 *146:32 *168:53 0
15 *146:32 *185:63 1.59549e-05
16 *146:32 *211:26 8.96743e-05
17 *146:32 *234:148 0.000211854
18 *146:32 *234:163 4.10429e-05
19 *146:32 *247:71 0.000966139
20 *969:A *146:32 4.97394e-05
21 *1008:B1 *146:32 0.000229894
22 *1009:B1 *146:32 1.7635e-05
23 *1014:B *146:32 5.78474e-05
24 *1015:A *146:32 0
25 *1107:S *146:32 5.92481e-05
26 *1129:A *146:32 6.69679e-05
27 *1158:D *146:32 6.9279e-05
28 *77:43 *146:32 3.11704e-05
29 *83:20 *146:32 0
30 *141:18 *146:32 0.000932647
*RES
1 *1007:X *146:32 48.3161 
2 *146:32 *1008:C1 3.6 
*END

*D_NET *147 0.0222535
*CONN
*I *1011:A1 I *D sky130_fd_sc_hd__a21oi_4
*I *1008:X O *D sky130_fd_sc_hd__a211o_1
*CAP
1 *1011:A1 0.00252252
2 *1008:X 0.00147834
3 *147:16 0.00400086
4 *1011:A1 *1011:A2 0.000182624
5 *1011:A1 *1016:B2 0.000130707
6 *1011:A1 *1044:B 0.00181277
7 *1011:A1 *1052:A3 5.06339e-05
8 *1011:A1 *1093:B1 0.000387728
9 *1011:A1 *1101:B 0.000109106
10 *1011:A1 *152:24 0.00192345
11 *1011:A1 *166:26 0.000110487
12 *1011:A1 *168:55 0.000375359
13 *1011:A1 *187:24 8.84299e-06
14 *1011:A1 *221:43 2.66769e-05
15 *1011:A1 *269:26 3.56951e-05
16 *147:16 *1051:A1 0.000246367
17 *147:16 *152:42 0.00144886
18 *147:16 *158:12 0.000377119
19 *147:16 *168:55 0.00111809
20 *147:16 *187:24 5.83121e-06
21 *147:16 *211:26 6.17113e-06
22 *939:A *1011:A1 0.00049277
23 *1164:D *1011:A1 0.000992388
24 *1185:A *1011:A1 0.00155802
25 *1189:A *147:16 1.79536e-05
26 *67:22 *1011:A1 0.00257907
27 *70:32 *147:16 0.00015371
28 *82:66 *1011:A1 0.000101392
*RES
1 *1008:X *147:16 41.665 
2 *147:16 *1011:A1 41.3912 
*END

*D_NET *148 0.00644473
*CONN
*I *1011:A2 I *D sky130_fd_sc_hd__a21oi_4
*I *1009:X O *D sky130_fd_sc_hd__o21a_1
*CAP
1 *1011:A2 0.00147177
2 *1009:X 0.00147177
3 *1011:A2 *978:A 0.000454433
4 *1011:A2 *1003:C 0.000109275
5 *1011:A2 *1056:A2 0.000265744
6 *1011:A2 *1111:A0 0.000325235
7 *1011:A2 *155:34 2.66932e-05
8 *1011:A2 *155:63 0.000113509
9 *1011:A2 *166:26 9.97121e-06
10 *1011:A2 *171:40 7.10331e-05
11 *1011:A2 *191:34 4.80285e-05
12 *1011:A2 *201:52 4.21151e-05
13 *1011:A2 *258:24 0.00017512
14 *1011:A2 *269:26 5.41395e-05
15 *965:A *1011:A2 1.05984e-05
16 *1011:A1 *1011:A2 0.000182624
17 *1025:A1 *1011:A2 0.000113397
18 *1166:D *1011:A2 0.00056703
19 *1168:D *1011:A2 0.000149695
20 *31:28 *1011:A2 4.15997e-05
21 *49:45 *1011:A2 0.000604904
22 *49:61 *1011:A2 4.77757e-05
23 *53:16 *1011:A2 8.8266e-05
*RES
1 *1009:X *1011:A2 39.36 
*END

*D_NET *149 0.00843501
*CONN
*I *1011:B1 I *D sky130_fd_sc_hd__a21oi_4
*I *1010:X O *D sky130_fd_sc_hd__and2b_1
*CAP
1 *1011:B1 0.000304834
2 *1010:X 0.00188854
3 *149:30 0.00219338
4 *1011:B1 *978:A 0
5 *1011:B1 *150:10 0.000141994
6 *1011:B1 *150:48 7.77978e-05
7 *1011:B1 *247:18 2.4002e-05
8 *149:30 *957:A 0.00049204
9 *149:30 *976:A1 0.000385474
10 *149:30 *1052:A1 0.000487296
11 *149:30 *157:30 9.03066e-05
12 *149:30 *234:31 4.53114e-05
13 *937:A *149:30 6.56811e-05
14 *957:B *149:30 7.79767e-06
15 *1010:B *149:30 0.00121723
16 *1113:S *1011:B1 0.000157736
17 *1123:A *149:30 0.000392306
18 *1172:D *149:30 8.8958e-05
19 *56:26 *149:30 9.66632e-05
20 *60:14 *149:30 0.00018794
21 *118:24 *149:30 8.97256e-05
*RES
1 *1010:X *149:30 44.3 
2 *149:30 *1011:B1 9.57 
*END

*D_NET *150 0.0326295
*CONN
*I *1029:A2 I *D sky130_fd_sc_hd__a21boi_4
*I *1058:D I *D sky130_fd_sc_hd__and4_1
*I *1042:A3 I *D sky130_fd_sc_hd__a31o_1
*I *1012:A I *D sky130_fd_sc_hd__buf_1
*I *1028:B1 I *D sky130_fd_sc_hd__a211o_1
*I *1011:Y O *D sky130_fd_sc_hd__a21oi_4
*CAP
1 *1029:A2 0
2 *1058:D 0.000675613
3 *1042:A3 0.000107819
4 *1012:A 0
5 *1028:B1 0.00100531
6 *1011:Y 0.000215688
7 *150:60 0.00139485
8 *150:50 0.000901084
9 *150:48 0.00262799
10 *150:14 0.00129524
11 *150:10 0.00284394
12 *1028:B1 *1076:A2 0.000566462
13 *1028:B1 *1092:A 7.48503e-05
14 *1028:B1 *151:10 0.000491223
15 *1028:B1 *157:30 7.73807e-05
16 *1028:B1 *255:20 0.000116218
17 *1042:A3 *188:16 5.84698e-05
18 *1042:A3 *256:22 8.35068e-05
19 *1058:D *1078:A3 0
20 *1058:D *1095:A2 1.94505e-05
21 *1058:D *1097:B2 0.000122184
22 *1058:D *155:98 5.80466e-05
23 *1058:D *197:28 0.000307637
24 *1058:D *223:30 0.000442848
25 *1058:D *256:22 0
26 *150:10 *978:A 7.47081e-05
27 *150:10 *191:34 4.99619e-05
28 *150:48 *182:49 0.000227733
29 *150:48 *184:20 0.00333428
30 *150:48 *216:79 4.28645e-05
31 *150:48 *216:83 0.00308682
32 *150:50 *1029:A1 0.000275548
33 *150:60 *1029:A1 8.40269e-05
34 *150:60 *1098:A2 0.000183909
35 *150:60 *188:16 0.000811585
36 seg[4] *150:48 0.000193017
37 *958:B *150:60 0.000305651
38 *967:A *150:60 0.000335431
39 *980:A *150:60 8.46818e-05
40 *982:B *1042:A3 0.000265124
41 *1011:B1 *150:10 0.000141994
42 *1011:B1 *150:48 7.77978e-05
43 *1016:A2 *150:48 0.000215636
44 *1024:A *1028:B1 4.89395e-05
45 *1024:A *150:14 0.00151394
46 *1028:A1 *1028:B1 2.01924e-05
47 *1028:C1 *1028:B1 2.85313e-05
48 *1042:A1 *1058:D 0.000105678
49 *1054:B *1058:D 0.000231987
50 *1113:S *150:14 0.000121796
51 *1130:C *1028:B1 0.000428299
52 *1163:D *150:48 0.000365861
53 *1165:D *150:48 0.00200972
54 *31:28 *150:10 4.66474e-05
55 *31:28 *150:48 0.000176318
56 *48:38 *150:48 0.000173591
57 *49:39 *1028:B1 4.77807e-05
58 *49:39 *150:14 0.00130674
59 *78:84 *1058:D 4.3593e-05
60 *82:79 *1028:B1 7.1037e-05
61 *84:32 *1058:D 0.000109206
62 *88:70 *1042:A3 7.17982e-05
63 *98:79 *1058:D 4.30166e-05
64 *118:24 *150:48 0.000783377
65 *119:46 *1042:A3 0.000156771
66 *119:46 *150:60 0.000925699
67 *120:39 *1028:B1 0.000252124
68 *135:10 *150:48 0.000270312
*RES
1 *1011:Y *150:10 7.725 
2 *150:10 *150:14 16.25 
3 *150:14 *1028:B1 25.565 
4 *150:14 *1012:A 1.6 
5 *150:10 *150:48 45.3066 
6 *150:48 *150:50 5.28 
7 *150:50 *150:60 23.32 
8 *150:60 *1042:A3 5.155 
9 *150:60 *1058:D 21.945 
10 *150:50 *1029:A2 1.6 
*END

*D_NET *151 0.00875091
*CONN
*I *1017:B I *D sky130_fd_sc_hd__and2_1
*I *1013:A I *D sky130_fd_sc_hd__buf_1
*I *1012:X O *D sky130_fd_sc_hd__buf_1
*CAP
1 *1017:B 0.00106145
2 *1013:A 0.000211194
3 *1012:X 0.000226852
4 *151:10 0.00149949
5 *1013:A *1076:A2 0.000524399
6 *1013:A *152:24 4.60061e-05
7 *1013:A *155:34 0.000118081
8 *1017:B *1072:B 0.000110899
9 *1017:B *1076:A2 8.40269e-05
10 *1017:B *155:34 0.00133294
11 *1017:B *157:30 0.000783593
12 *1017:B *244:12 1.32638e-05
13 *151:10 *1092:A 1.51105e-05
14 *1006:A1 *1017:B 8.05462e-07
15 *1028:B1 *151:10 0.000491223
16 *1135:A *1013:A 2.10152e-05
17 *1170:D *1017:B 0.000287929
18 *1173:D *1017:B 3.51884e-05
19 *82:54 *1017:B 0.000216518
20 *82:79 *151:10 0.000533266
21 *96:28 *1017:B 0.0007573
22 *100:65 *1017:B 0.000212015
23 *138:32 *1017:B 0.000147892
24 *145:47 *1017:B 1.21256e-05
25 *145:75 *1017:B 8.33066e-06
*RES
1 *1012:X *151:10 12.335 
2 *151:10 *1013:A 6.895 
3 *151:10 *1017:B 33.26 
*END

*D_NET *152 0.0201238
*CONN
*I *1015:B I *D sky130_fd_sc_hd__and3_2
*I *1013:X O *D sky130_fd_sc_hd__buf_1
*CAP
1 *1015:B 0.00107024
2 *1013:X 0.00167616
3 *152:42 0.00213631
4 *152:24 0.00274223
5 *1015:B *1015:C 0.000247615
6 *152:24 *1051:A1 0.000449835
7 *152:24 *1076:A2 0.000167218
8 *152:24 *1076:A3 0.00104777
9 *152:24 *168:55 0.00231031
10 *152:42 *1008:A1 0.000533592
11 *152:42 *1015:C 0
12 *152:42 *1142:B 0.000459285
13 *152:42 *211:26 0.000298795
14 *939:A *152:24 0.000127894
15 *970:A *152:24 9.75499e-05
16 *970:B *152:24 0.000159625
17 *1008:A2 *1015:B 1.03423e-05
18 *1008:B1 *1015:B 0.00157137
19 *1011:A1 *152:24 0.00192345
20 *1013:A *152:24 4.60061e-05
21 *1138:B *152:24 0.000158066
22 *1142:A *152:42 1.52352e-05
23 *1189:A *152:42 7.93229e-05
24 *67:22 *152:24 0.000226538
25 *67:22 *152:42 0.00062796
26 *70:32 *152:42 0.000417625
27 *109:40 *152:24 7.46447e-05
28 *147:16 *152:42 0.00144886
*RES
1 *1013:X *152:24 49.77 
2 *152:24 *152:42 40.87 
3 *152:42 *1015:B 22.075 
*END

*D_NET *153 0.0160068
*CONN
*I *1015:C I *D sky130_fd_sc_hd__and3_2
*I *1019:B I *D sky130_fd_sc_hd__nand2_1
*I *1014:Y O *D sky130_fd_sc_hd__nor2_1
*CAP
1 *1015:C 0.00141214
2 *1019:B 0.000451656
3 *1014:Y 0.000235835
4 *153:24 0.00136067
5 *153:6 0.00255699
6 *1015:C *1079:A2 0.000159068
7 *1015:C *271:43 0.000522412
8 *1019:B *1076:A1 0
9 *1019:B *1076:B1 0.000337978
10 *1019:B *1092:A 2.49909e-05
11 *1019:B *1130:B 9.12494e-06
12 *1019:B *1179:CLK 0.0003428
13 *1019:B *191:34 4.77807e-05
14 *1019:B *233:51 0.000298447
15 *1019:B *233:53 0.000220589
16 *1019:B *249:33 5.63118e-05
17 *153:6 *271:43 0.000167877
18 *153:24 *1035:A1_N 0.00022707
19 *153:24 *1052:B2 2.0189e-05
20 *153:24 *1098:A1 0.000234183
21 *153:24 *1130:B 0
22 *153:24 *1142:B 0.000616973
23 *153:24 *239:10 0.000405776
24 *1008:A2 *1015:C 0.00183741
25 *1008:B1 *1015:C 0.000868082
26 *1015:B *1015:C 0.000247615
27 *1051:A0 *153:24 0.00061929
28 *1060:A *1015:C 0
29 *1130:C *153:24 0
30 *1145:A *153:24 0.000389453
31 *1159:D *153:24 7.21738e-05
32 *1175:D *1019:B 7.03219e-05
33 *1177:D *1019:B 0.00016992
34 *28:24 *1019:B 0.000113142
35 *70:32 *1015:C 6.63219e-06
36 *109:40 *1019:B 0.000818604
37 *109:40 *153:24 0.00106637
38 *146:32 *1015:C 1.89685e-05
39 *152:42 *1015:C 0
*RES
1 *1014:Y *153:6 4.465 
2 *153:6 *153:24 38.245 
3 *153:24 *1019:B 19.965 
4 *153:6 *1015:C 38.69 
*END

*D_NET *154 0.0194354
*CONN
*I *1052:B1 I *D sky130_fd_sc_hd__a32o_4
*I *1016:B2 I *D sky130_fd_sc_hd__a22o_4
*I *1015:X O *D sky130_fd_sc_hd__and3_2
*CAP
1 *1052:B1 0.00053897
2 *1016:B2 0.0018903
3 *1015:X 0.00347057
4 *154:18 0.00589984
5 *1016:B2 *1052:A3 0.000739843
6 *1016:B2 *163:18 0.000261743
7 *1016:B2 *184:20 0.000111574
8 *1052:B1 *1052:A3 0.00104786
9 *1052:B1 *184:20 0.000360637
10 *1052:B1 *198:24 4.04634e-05
11 *154:18 *950:B 9.40413e-05
12 *154:18 *1062:B1 3.99991e-05
13 *154:18 *1075:A1 3.04641e-05
14 *154:18 *1085:S 0.000379961
15 *154:18 *1098:A1 2.20023e-05
16 *154:18 *236:194 3.21851e-05
17 *956:A *1016:B2 0.000145755
18 *990:A *154:18 0.00177095
19 *1000:B1 *154:18 3.42438e-05
20 *1008:A2 *154:18 0
21 *1011:A1 *1016:B2 0.000130707
22 *1015:A *154:18 0
23 *1016:A2 *1016:B2 9.58678e-06
24 *1024:A *1016:B2 4.88367e-05
25 *1163:D *1016:B2 0.000466111
26 *1164:D *1016:B2 0.000162627
27 *1171:D *154:18 1.73493e-05
28 *83:20 *154:18 0
29 *100:32 *154:18 0.00130832
30 *110:53 *154:18 0.000340249
31 *116:82 *154:18 4.02488e-05
*RES
1 *1015:X *154:18 19.0444 
2 *154:18 *1016:B2 12.3656 
3 *154:18 *1052:B1 6.2861 
*END

*D_NET *155 0.0315208
*CONN
*I *1122:A0 I *D sky130_fd_sc_hd__mux2_1
*I *1036:A I *D sky130_fd_sc_hd__nor2_2
*I *1079:A1 I *D sky130_fd_sc_hd__a211o_1
*I *1073:A I *D sky130_fd_sc_hd__inv_2
*I *1146:A1 I *D sky130_fd_sc_hd__mux2_1
*I *1087:A1 I *D sky130_fd_sc_hd__mux2_1
*I *1070:A1 I *D sky130_fd_sc_hd__a21oi_2
*I *1063:A I *D sky130_fd_sc_hd__nor2_1
*I *1109:A1 I *D sky130_fd_sc_hd__mux2_1
*I *1016:X O *D sky130_fd_sc_hd__a22o_4
*CAP
1 *1122:A0 8.17433e-05
2 *1036:A 2.61242e-05
3 *1079:A1 4.44881e-05
4 *1073:A 0.000303416
5 *1146:A1 0.000617144
6 *1087:A1 0.000523093
7 *1070:A1 0
8 *1063:A 3.42396e-05
9 *1109:A1 8.88903e-05
10 *1016:X 0.000918575
11 *155:143 0.00100685
12 *155:133 0.0011649
13 *155:98 0.00135149
14 *155:82 0.00229226
15 *155:63 0.00178711
16 *155:34 0.00142157
17 *155:26 0.00109565
18 *155:22 0.0011896
19 *1036:A *174:124 4.66108e-05
20 *1063:A *1035:B1 1.31297e-05
21 *1063:A *1063:B 3.21081e-06
22 *1063:A *1074:B1 3.32394e-05
23 *1073:A *1023:A1 0.000105326
24 *1073:A *1079:B1 1.24955e-05
25 *1073:A *1079:C1 8.92769e-06
26 *1079:A1 *1079:C1 1.27037e-05
27 *1087:A1 *1089:A1 0.000197862
28 *1087:A1 *1107:A0 0.00037229
29 *1122:A0 *191:34 0.000119866
30 *1146:A1 *945:A1 5.38346e-05
31 *1146:A1 *1056:B1 9.11388e-05
32 *1146:A1 *1069:A 0.000120524
33 *1146:A1 *174:6 0.00017923
34 *155:22 *191:34 0.000303911
35 *155:34 *269:26 0.000121238
36 *155:63 *1102:A 0.000178013
37 *155:63 *1128:A0 0.000162853
38 *155:82 *1035:B1 1.45935e-05
39 *155:82 *1035:B2 0.000232957
40 *155:82 *1074:B1 0.000741005
41 *155:82 *1100:B 8.73147e-06
42 *155:82 *174:6 0.00013598
43 *155:82 *227:67 6.76938e-05
44 *155:82 *237:53 0.000419658
45 *155:98 *1022:B1 0.000189113
46 *155:98 *1062:A2 0.000258669
47 *155:98 *1097:A1 7.03219e-05
48 *155:98 *1107:A0 0.000292143
49 *155:98 *196:16 5.8023e-05
50 *155:98 *267:26 0.000213624
51 *155:133 *167:18 0.000129069
52 *155:133 *255:83 8.77994e-05
53 *155:143 *1026:A0 0.000334729
54 *155:143 *1079:C1 2.49496e-05
55 *155:143 *1080:B 0.000123692
56 *155:143 *167:18 6.27457e-05
57 *938:A *155:22 2.9167e-05
58 *939:A *155:98 0.000122045
59 *954:A *1087:A1 0.000486907
60 *954:A *155:98 0.00016793
61 *964:A *155:143 6.32598e-05
62 *981:B1 *155:63 8.41509e-06
63 *998:A *155:143 5.56013e-05
64 *999:A2 *155:133 0.000143854
65 *1011:A2 *155:34 2.66932e-05
66 *1011:A2 *155:63 0.000113509
67 *1013:A *155:34 0.000118081
68 *1017:B *155:34 0.00133294
69 *1025:A1 *155:63 3.69766e-05
70 *1027:B *155:34 1.67629e-05
71 *1028:A1 *1079:A1 0
72 *1028:A1 *155:143 3.59784e-05
73 *1031:B *155:98 9.387e-06
74 *1054:B *155:98 0.000297916
75 *1058:D *155:98 5.80466e-05
76 *1111:S *155:133 0
77 *1121:A *1087:A1 0.000787504
78 *1124:S *155:22 0.000923949
79 *1131:A *155:63 0.000150934
80 *1135:A *155:34 0.000711796
81 *1146:S *1146:A1 0.000116889
82 *1147:A *1146:A1 4.66108e-05
83 *1166:D *155:63 0.000200504
84 *1166:D *155:133 0.000107904
85 *1170:D *155:34 0.000119762
86 *1177:D *155:63 7.56872e-05
87 *1180:D *155:63 0.000953317
88 *49:39 *155:26 0.000168423
89 *49:45 *155:34 0.000172985
90 *49:61 *155:34 6.78562e-05
91 *49:61 *155:63 0.000445596
92 *53:16 *155:22 8.99203e-05
93 *57:87 *155:26 0.000310564
94 *57:87 *155:133 0.000525183
95 *65:14 *1087:A1 0.000566561
96 *71:43 *155:63 1.66925e-05
97 *77:43 *1063:A 1.14169e-05
98 *77:43 *155:82 0.000258521
99 *78:84 *155:98 2.60673e-05
100 *82:79 *155:26 3.07101e-05
101 *83:30 *155:63 0.000275849
102 *84:26 *1087:A1 0
103 *84:32 *155:98 6.72344e-05
104 *84:38 *155:98 0.000249376
105 *84:83 *155:63 0.000251332
106 *84:89 *155:22 3.13982e-05
107 *85:20 *155:26 0.000102093
108 *85:20 *155:133 3.34969e-05
109 *95:53 *155:34 0.000336376
110 *106:95 *155:143 0.000247121
111 *112:18 *1146:A1 8.46767e-05
112 *120:76 *155:63 0.000163344
113 *124:36 *1109:A1 0.000120655
*RES
1 *1016:X *155:22 19.58 
2 *155:22 *155:26 6.695 
3 *155:26 *155:34 20.47 
4 *155:34 *1109:A1 4.74 
5 *155:34 *155:63 12.6885 
6 *155:63 *1063:A 2.41 
7 *155:63 *155:82 19.135 
8 *155:82 *155:98 23.4 
9 *155:98 *1070:A1 3.6 
10 *155:98 *1087:A1 19.245 
11 *155:82 *1146:A1 14.18 
12 *155:26 *155:133 10.56 
13 *155:133 *155:143 13.445 
14 *155:143 *1073:A 6.115 
15 *155:143 *1079:A1 2.44375 
16 *155:133 *1036:A 4.05 
17 *155:22 *1122:A0 2.74 
*END

*D_NET *156 0.00214647
*CONN
*I *1018:A I *D sky130_fd_sc_hd__buf_1
*I *1017:X O *D sky130_fd_sc_hd__and2_1
*CAP
1 *1018:A 0.000403238
2 *1017:X 0.000403238
3 *1018:A *1003:C 0.000507113
4 *1018:A *1088:A 0.000391827
5 *1018:A *1117:D_N 4.66108e-05
6 *1018:A *198:24 8.75751e-05
7 *1018:A *218:20 0.000152326
8 *1018:A *234:16 4.7878e-05
9 *1117:A *1018:A 7.14892e-06
10 *1158:D *1018:A 3.03697e-05
11 *1161:D *1018:A 6.33103e-05
12 *145:47 *1018:A 5.83121e-06
*RES
1 *1017:X *1018:A 17.925 
*END

*D_NET *157 0.0130664
*CONN
*I *1019:A I *D sky130_fd_sc_hd__nand2_1
*I *1018:X O *D sky130_fd_sc_hd__buf_1
*CAP
1 *1019:A 0.000358847
2 *1018:X 0.00168783
3 *157:30 0.00204668
4 *1019:A *1092:A 0.000617174
5 *1019:A *1122:A1 0.000118081
6 *1019:A *191:34 0.00151644
7 *157:30 *957:A 3.82018e-05
8 *157:30 *1003:A_N 0.000587693
9 *157:30 *1046:B 0.000215477
10 *157:30 *1092:A 5.52482e-05
11 *157:30 *1122:A1 0.000194287
12 *157:30 *236:73 4.03822e-05
13 *157:30 *244:12 0.000907945
14 *157:30 *247:18 9.05513e-05
15 *157:30 *255:20 2.44728e-05
16 *157:30 *269:26 0.000237414
17 *1006:A1 *157:30 3.92756e-05
18 *1017:B *157:30 0.000783593
19 *1028:B1 *157:30 7.73807e-05
20 *1123:A *157:30 0.000363322
21 *1124:S *1019:A 0.00030445
22 *1158:D *157:30 0.000139918
23 *1178:D *157:30 3.69766e-05
24 *60:14 *157:30 0.00167069
25 *81:72 *157:30 0.000231374
26 *81:92 *157:30 0.00019538
27 *82:54 *157:30 0.000289534
28 *84:83 *157:30 5.64451e-05
29 *100:65 *157:30 3.95615e-05
30 *116:98 *157:30 1.14803e-05
31 *149:30 *157:30 9.03066e-05
*RES
1 *1018:X *157:30 44.2979 
2 *157:30 *1019:A 15.85 
*END

*D_NET *158 0.0191979
*CONN
*I *1035:A1_N I *D sky130_fd_sc_hd__a2bb2o_4
*I *1019:Y O *D sky130_fd_sc_hd__nand2_1
*CAP
1 *1035:A1_N 0.00266207
2 *1019:Y 0.00101257
3 *158:12 0.00367464
4 *1035:A1_N *1038:B 8.03175e-05
5 *1035:A1_N *1048:A 0.000437767
6 *1035:A1_N *1094:A1 0.00151466
7 *1035:A1_N *1094:A2 1.32102e-05
8 *1035:A1_N *1095:B1 0.00041226
9 *1035:A1_N *1140:A 0.000489697
10 *1035:A1_N *1193:A 0.00013158
11 *1035:A1_N *1196:A 0.000276218
12 *1035:A1_N *178:71 1.40078e-05
13 *1035:A1_N *198:28 7.85994e-05
14 *1035:A1_N *234:112 8.72134e-05
15 *1035:A1_N *237:53 1.43867e-05
16 *158:12 *168:55 1.52776e-05
17 *158:12 *173:32 2.05583e-05
18 *158:12 *187:24 0.00221148
19 *158:12 *191:34 0.000490267
20 *158:12 *211:26 0.000929246
21 *158:12 *229:22 0.00161274
22 *1180:D *1035:A1_N 0.000242465
23 *67:22 *1035:A1_N 4.66108e-05
24 *70:32 *158:12 0.00048999
25 *99:43 *1035:A1_N 1.88656e-05
26 *100:32 *1035:A1_N 5.18735e-06
27 *116:60 *1035:A1_N 0.000524057
28 *116:82 *1035:A1_N 0.000378756
29 *123:22 *1035:A1_N 0.000509084
30 *129:28 *1035:A1_N 0.000199983
31 *147:16 *158:12 0.000377119
32 *153:24 *1035:A1_N 0.00022707
*RES
1 *1019:Y *158:12 42.035 
2 *158:12 *1035:A1_N 44.0369 
*END

*D_NET *159 0.00482212
*CONN
*I *1022:B1 I *D sky130_fd_sc_hd__a2bb2o_2
*I *1020:Y O *D sky130_fd_sc_hd__nand2_1
*CAP
1 *1022:B1 0.000842392
2 *1020:Y 0.000842392
3 *1022:B1 *1095:A1 3.83194e-05
4 *1022:B1 *1095:A2 0.000121643
5 *1022:B1 *1095:B1 1.58398e-05
6 *1022:B1 *1098:B1 0.000621215
7 *1022:B1 *201:80 1.75583e-05
8 *1022:B1 *223:30 0.000217985
9 *1022:B1 *267:26 4.8203e-06
10 *953:B1 *1022:B1 9.8029e-05
11 *959:A1 *1022:B1 2.35892e-05
12 *1097:A2 *1022:B1 4.09497e-05
13 *84:26 *1022:B1 0.000343429
14 *84:32 *1022:B1 0.000251517
15 *110:70 *1022:B1 0.00103374
16 *120:76 *1022:B1 0.000119595
17 *155:98 *1022:B1 0.000189113
*RES
1 *1020:Y *1022:B1 28.23 
*END

*D_NET *160 0.00855645
*CONN
*I *1022:B2 I *D sky130_fd_sc_hd__a2bb2o_2
*I *1021:Y O *D sky130_fd_sc_hd__a21oi_1
*CAP
1 *1022:B2 0.00216316
2 *1021:Y 0.00216316
3 *1022:B2 *1095:B1 0.00146504
4 *1022:B2 *1097:B2 2.22315e-05
5 *1022:B2 *1115:A0 0.000525429
6 *1022:B2 *233:147 0.0001249
7 *1022:B2 *233:176 5.96623e-06
8 *1022:B2 *236:156 9.23681e-05
9 *1022:B2 *236:173 0.000332469
10 *1022:B2 *261:14 1.88602e-05
11 *949:B *1022:B2 0.00023165
12 *959:A1 *1022:B2 1.88602e-05
13 *964:A *1022:B2 1.7635e-05
14 *1021:A2 *1022:B2 0.000273054
15 *1137:A *1022:B2 0.000259936
16 *1184:RESET_B *1022:B2 0.000390894
17 *81:28 *1022:B2 0.000114389
18 *110:53 *1022:B2 0.000121451
19 *120:76 *1022:B2 0.000214987
*RES
1 *1021:Y *1022:B2 27.484 
*END

*D_NET *161 0.0175399
*CONN
*I *1049:A I *D sky130_fd_sc_hd__inv_2
*I *1038:A I *D sky130_fd_sc_hd__or2_1
*I *1023:A1 I *D sky130_fd_sc_hd__mux2_1
*I *1030:A I *D sky130_fd_sc_hd__xnor2_2
*I *1022:X O *D sky130_fd_sc_hd__a2bb2o_2
*CAP
1 *1049:A 7.93597e-05
2 *1038:A 0.00013885
3 *1023:A1 0.00044114
4 *1030:A 0.00153486
5 *1022:X 0.00017292
6 *161:68 0.000328777
7 *161:32 0.00409777
8 *161:12 0.00240526
9 *1023:A1 *1026:A0 6.75515e-05
10 *1023:A1 *1079:C1 2.95708e-05
11 *1023:A1 *1102:A 3.16707e-06
12 *1023:A1 *210:28 0.000154801
13 *1023:A1 *239:8 3.64998e-06
14 *1030:A *1082:A 0.000320848
15 *1030:A *1102:A 2.17874e-05
16 *1030:A *1103:A1 9.99092e-05
17 *1030:A *1124:A0 1.43702e-05
18 *1030:A *169:16 0
19 *1030:A *205:22 0.000132188
20 *1030:A *215:14 9.28507e-05
21 *1030:A *239:64 4.00158e-05
22 *1038:A *1032:A1 0.000167963
23 *1038:A *1035:B2 3.72952e-05
24 *1038:A *170:43 4.66474e-05
25 *1038:A *251:16 4.77769e-05
26 *1038:A *257:14 1.49225e-05
27 *1049:A *256:22 4.59452e-05
28 *161:12 *1097:B2 3.72071e-05
29 *161:12 *170:43 0.000153816
30 *161:32 *1048:B 3.76213e-05
31 *161:32 *1065:B 0.000383801
32 *161:32 *1079:A2 0.000146815
33 *161:32 *1079:B1 9.8057e-06
34 *161:32 *1102:A 0.000376807
35 *161:32 *205:22 1.48526e-05
36 *161:32 *210:28 0.000173277
37 *161:32 *264:10 4.77757e-05
38 *939:A *1030:A 1.7635e-05
39 *953:B1 *1038:A 3.71738e-05
40 *959:A1 *161:12 7.9642e-06
41 *965:A *161:12 8.70354e-05
42 *970:A *1023:A1 3.29528e-05
43 *970:A *1030:A 0.00013002
44 *1023:A0 *1023:A1 6.90044e-05
45 *1028:C1 *1030:A 1.82831e-05
46 *1031:A *1049:A 7.44125e-05
47 *1031:A *161:32 0.000414756
48 *1031:A *161:68 0.000181072
49 *1031:B *1049:A 5.92278e-05
50 *1032:A2 *1038:A 4.66108e-05
51 *1060:A *1030:A 1.7635e-05
52 *1060:A *161:32 0.000429006
53 *1073:A *1023:A1 0.000105326
54 *1081:A *1030:A 0.000266859
55 *1141:A *161:32 0.000191343
56 *1159:D *161:32 0.00140081
57 *1164:D *1030:A 0.000435546
58 *1182:D *1030:A 0
59 *53:16 *1030:A 0.000714697
60 *95:18 *161:32 7.62956e-05
61 *106:80 *161:32 0.0002334
62 *120:88 *1049:A 9.96098e-05
63 *130:10 *1030:A 0.000167963
64 *133:8 *161:32 0.000303289
*RES
1 *1022:X *161:12 8.21 
2 *161:12 *161:32 37.8386 
3 *161:32 *1030:A 35.6025 
4 *161:32 *1023:A1 11.5575 
5 *161:12 *161:68 1.83 
6 *161:68 *1038:A 8.705 
7 *161:68 *1049:A 3.895 
*END

*D_NET *162 0.00598148
*CONN
*I *1026:A0 I *D sky130_fd_sc_hd__mux2_1
*I *1023:X O *D sky130_fd_sc_hd__mux2_1
*CAP
1 *1026:A0 0.00164906
2 *1023:X 0.00164906
3 *1026:A0 *1079:C1 0.000253061
4 *1026:A0 *167:18 8.47272e-05
5 *1026:A0 *210:28 0.000207497
6 *1026:A0 *236:39 0.000121027
7 *1026:A0 *258:24 0.000228235
8 *1026:A0 *265:16 7.96104e-06
9 *1023:A0 *1026:A0 8.52763e-05
10 *1023:A1 *1026:A0 6.75515e-05
11 *1028:A1 *1026:A0 3.64998e-06
12 *1081:A *1026:A0 0.000191955
13 *1130:C *1026:A0 0.000305169
14 *1183:RESET_B *1026:A0 0
15 *32:60 *1026:A0 9.48898e-05
16 *37:16 *1026:A0 0.000168997
17 *98:42 *1026:A0 9.43385e-05
18 *99:8 *1026:A0 0.000434287
19 *155:143 *1026:A0 0.000334729
*RES
1 *1023:X *1026:A0 44.345 
*END

*D_NET *163 0.0207916
*CONN
*I *1061:A2 I *D sky130_fd_sc_hd__a21oi_1
*I *1026:A1 I *D sky130_fd_sc_hd__mux2_1
*I *1024:Y O *D sky130_fd_sc_hd__nand2_1
*CAP
1 *1061:A2 0.00221437
2 *1026:A1 0.000465209
3 *1024:Y 0.002768
4 *163:18 0.00544758
5 *1026:A1 *950:B 0.000396711
6 *1026:A1 *1026:S 2.68526e-05
7 *1026:A1 *1140:A 4.77719e-05
8 *1026:A1 *204:28 0.000151364
9 *1026:A1 *236:33 1.91597e-05
10 *1061:A2 *1051:A1 0
11 *1061:A2 *1062:B1 0.00054834
12 *1061:A2 *1124:A1 0.00146703
13 *1061:A2 *211:26 0.000177237
14 *1061:A2 *271:24 0.000174934
15 *163:18 *1065:A 0.00133243
16 *163:18 *1065:B 0
17 *163:18 *1080:B 0.000600448
18 *163:18 *1099:B 0.000196404
19 *163:18 *183:10 6.16226e-06
20 *163:18 *187:24 1.7635e-05
21 *939:A *1061:A2 0.000195768
22 *964:A *1026:A1 9.73612e-05
23 *981:A2 *1026:A1 8.73165e-05
24 *998:A *1061:A2 0.00126799
25 *998:A *163:18 0.000234103
26 *1016:B2 *163:18 0.000261743
27 *1024:A *163:18 0.000694731
28 *1060:A *1061:A2 0
29 *1137:A *1061:A2 8.62076e-05
30 *1140:B *1026:A1 4.82863e-05
31 *1141:A *1026:A1 0.000629253
32 *1164:D *163:18 0.000527708
33 *1185:A *163:18 0.000116956
34 *31:28 *163:18 0.000121034
35 *58:28 *1061:A2 0.000115422
36 *64:32 *1026:A1 0.000101493
37 *95:18 *1026:A1 0.000148586
*RES
1 *1024:Y *163:18 22.2684 
2 *163:18 *1026:A1 15.2894 
3 *163:18 *1061:A2 12.3644 
*END

*D_NET *164 0.00404526
*CONN
*I *1026:S I *D sky130_fd_sc_hd__mux2_1
*I *1025:X O *D sky130_fd_sc_hd__a31o_1
*CAP
1 *1026:S 0.00076078
2 *1025:X 0.00076078
3 *1026:S *1072:B 0.00054807
4 *1026:S *252:54 3.68858e-05
5 *987:A2 *1026:S 0.00043163
6 *1026:A1 *1026:S 2.68526e-05
7 *1081:A *1026:S 2.39856e-05
8 *1116:A *1026:S 0.000783555
9 *1173:D *1026:S 0.000174955
10 *32:60 *1026:S 0.000208014
11 *64:32 *1026:S 1.58398e-05
12 *103:32 *1026:S 0.00027391
*RES
1 *1025:X *1026:S 25.5 
*END

*D_NET *165 0.00433039
*CONN
*I *1035:A2_N I *D sky130_fd_sc_hd__a2bb2o_4
*I *1026:X O *D sky130_fd_sc_hd__mux2_1
*CAP
1 *1035:A2_N 0.00128301
2 *1026:X 0.00128301
3 *1035:A2_N *1074:B1 8.4841e-05
4 *1035:A2_N *198:28 0
5 *1035:A2_N *227:67 4.29642e-05
6 *1035:A2_N *234:163 0.000380589
7 *1035:A2_N *237:53 6.29308e-05
8 *1081:A *1035:A2_N 0.000514111
9 *90:42 *1035:A2_N 0.000678926
*RES
1 *1026:X *1035:A2_N 24.42 
*END

*D_NET *166 0.0170074
*CONN
*I *1029:A1 I *D sky130_fd_sc_hd__a21boi_4
*I *1027:X O *D sky130_fd_sc_hd__and2_1
*CAP
1 *1029:A1 0.000884828
2 *1027:X 0.002837
3 *166:26 0.00372183
4 *1029:A1 *1045:A 0
5 *1029:A1 *1050:A0 0.000485014
6 *1029:A1 *1196:A 0.00110758
7 *1029:A1 *182:49 0.000284339
8 *1029:A1 *184:20 1.25926e-05
9 *166:26 *1044:B 6.65877e-05
10 *166:26 *1052:B2 0.00024131
11 *166:26 *1059:A 0.00146434
12 *166:26 *1065:A 0.000128954
13 *166:26 *1068:A 0.0022702
14 *166:26 *1196:A 0.00019336
15 *166:26 *1197:A 0
16 *166:26 *180:14 3.93748e-05
17 *166:26 *182:49 0.000521807
18 *166:26 *184:20 0.00110626
19 *166:26 *216:79 0
20 *166:26 *269:26 7.9642e-06
21 an[3] *1029:A1 1.88656e-05
22 seg[0] *1029:A1 1.88656e-05
23 seg[1] *1029:A1 1.88656e-05
24 seg[2] *166:26 8.36502e-05
25 seg[3] *166:26 0
26 seg[5] *166:26 7.79155e-05
27 seg[6] *166:26 0
28 *1011:A1 *166:26 0.000110487
29 *1011:A2 *166:26 9.97121e-06
30 *1037:A2 *166:26 9.71141e-05
31 *1165:D *166:26 0
32 *1167:D *166:26 0.000101386
33 *1182:D *166:26 0.000406757
34 *126:28 *166:26 0.000101386
35 *128:12 *1029:A1 9.85407e-05
36 *128:12 *166:26 0.000130618
37 *128:38 *1029:A1 0
38 *135:10 *1029:A1 0
39 *150:50 *1029:A1 0.000275548
40 *150:60 *1029:A1 8.40269e-05
*RES
1 *1027:X *166:26 34.4417 
2 *166:26 *1029:A1 28.0425 
*END

*D_NET *167 0.0164603
*CONN
*I *277:DIODE I *D sky130_fd_sc_hd__diode_2
*I *1029:B1_N I *D sky130_fd_sc_hd__a21boi_4
*I *1028:X O *D sky130_fd_sc_hd__a211o_1
*CAP
1 *277:DIODE 0
2 *1029:B1_N 0.000113384
3 *1028:X 0.00233267
4 *167:38 0.00184789
5 *167:18 0.00406718
6 *1029:B1_N *1128:A1 0.000234722
7 *1029:B1_N *207:18 3.24046e-05
8 *167:18 *1111:A0 0.000155508
9 *167:18 *185:63 0.000986322
10 *167:18 *255:83 0.000334066
11 *167:18 *270:28 0.000251994
12 *167:38 *1055:A2 9.9848e-05
13 *167:38 *1056:B1 3.8353e-05
14 *167:38 *1087:A0 0.000153816
15 *167:38 *185:63 0
16 *167:38 *207:18 0.000115842
17 *167:38 *208:8 0.000160314
18 *167:38 *263:18 0.00133385
19 *946:A *167:38 9.80032e-06
20 *946:B *167:38 0.000110494
21 *952:D *167:38 6.32187e-05
22 *963:B *167:18 0.000666367
23 *964:A *167:18 0
24 *965:A *167:38 0.00022707
25 *983:A *167:18 0.000479
26 *1026:A0 *167:18 8.47272e-05
27 *1107:S *167:18 9.82856e-06
28 *1142:C *167:38 0.000101198
29 *1158:D *167:38 7.81994e-05
30 *1183:D *167:38 0.000125243
31 *37:16 *167:18 0.0012063
32 *82:162 *1029:B1_N 3.05373e-05
33 *82:162 *167:38 9.90903e-05
34 *93:37 *167:18 0.000227224
35 *98:42 *167:18 9.73275e-05
36 *98:42 *167:38 2.38557e-05
37 *104:10 *167:38 1.91597e-05
38 *128:38 *167:38 0.000351664
39 *155:133 *167:18 0.000129069
40 *155:143 *167:18 6.27457e-05
*RES
1 *1028:X *167:18 49.8775 
2 *167:18 *167:38 31.0549 
3 *167:38 *1029:B1_N 6.39 
4 *167:38 *277:DIODE 3.6 
*END

*D_NET *168 0.0298718
*CONN
*I *1030:B I *D sky130_fd_sc_hd__xnor2_2
*I *1038:B I *D sky130_fd_sc_hd__or2_1
*I *1029:Y O *D sky130_fd_sc_hd__a21boi_4
*CAP
1 *1030:B 0.000868396
2 *1038:B 0.000651428
3 *1029:Y 0.0010488
4 *168:55 0.00238516
5 *168:53 0.00385137
6 *168:49 0.00317187
7 *168:20 0.00253751
8 *1030:B *169:16 8.8266e-05
9 *1030:B *215:14 0.000469479
10 *1030:B *216:20 0
11 *1038:B *1035:B2 6.44978e-06
12 *1038:B *1148:A0 0.000710064
13 *1038:B *257:14 0.000125244
14 *168:20 *1128:A1 0.00089562
15 *168:20 *1148:A0 4.09223e-05
16 *168:49 *1055:A2 0.000420975
17 *168:49 *1089:A0 7.43097e-05
18 *168:49 *1099:B 0.000147354
19 *168:53 *1090:A 0.00081397
20 *168:55 *1051:A1 0.000411471
21 *168:55 *1076:A3 0.00130656
22 *168:55 *187:24 0.000776441
23 *168:55 *216:20 0
24 *939:A *168:20 0.000105131
25 *939:A *168:55 0.000210502
26 *946:A *168:20 0.000420711
27 *1008:B1 *1038:B 0.000559731
28 *1008:B1 *168:49 0.000407838
29 *1011:A1 *168:55 0.000375359
30 *1035:A1_N *1038:B 8.03175e-05
31 *1055:B1 *168:49 0.000440954
32 *1097:A2 *168:20 9.85352e-05
33 *1097:B1 *168:20 0.000258691
34 *1189:A *168:55 2.10433e-05
35 *1190:A *168:55 2.10433e-05
36 *65:14 *168:20 0.000229226
37 *67:22 *168:55 6.40036e-05
38 *70:32 *168:55 0.000127246
39 *90:84 *1038:B 0.000135229
40 *97:22 *168:20 0.000633903
41 *116:23 *168:20 1.63344e-05
42 *116:60 *1038:B 7.56727e-05
43 *128:38 *168:20 0.0012538
44 *141:18 *1038:B 9.12048e-05
45 *146:32 *168:53 0
46 *147:16 *168:55 0.00111809
47 *152:24 *168:55 0.00231031
48 *158:12 *168:55 1.52776e-05
*RES
1 *1029:Y *168:20 18.2646 
2 *168:20 *1038:B 8.16243 
3 *168:20 *168:49 12.7888 
4 *168:49 *168:53 41.78 
5 *168:53 *168:55 57.2025 
6 *168:55 *1030:B 19.3575 
*END

*D_NET *169 0.0115559
*CONN
*I *1033:A I *D sky130_fd_sc_hd__or2_1
*I *1039:A1 I *D sky130_fd_sc_hd__o21ai_2
*I *1034:A1 I *D sky130_fd_sc_hd__a21oi_1
*I *1030:Y O *D sky130_fd_sc_hd__xnor2_2
*CAP
1 *1033:A 0.000222121
2 *1039:A1 0.000479663
3 *1034:A1 0
4 *1030:Y 0.000921481
5 *169:35 0.00199625
6 *169:16 0.00221595
7 *1033:A *985:A1 6.11965e-05
8 *1033:A *1033:B 0
9 *1039:A1 *985:B2 0.00059333
10 *1039:A1 *1003:C 0.000228228
11 *1039:A1 *1173:CLK 4.66108e-05
12 *1039:A1 *171:40 0.000123805
13 *1039:A1 *248:23 0.000533586
14 *1039:A1 *258:24 9.57985e-05
15 *169:16 *1086:A 4.66108e-05
16 *169:16 *1101:A_N 0.000737131
17 *169:16 *1138:A 3.57743e-05
18 *169:16 *215:14 8.8266e-05
19 *169:35 *1033:B 0
20 *169:35 *1034:A2 0
21 *169:35 *1086:A 0.000142854
22 *169:35 *1111:A0 0.000127154
23 *169:35 *250:64 0.000932943
24 *956:A *169:16 0
25 *970:B *169:16 4.61701e-06
26 *981:A2 *169:35 5.77533e-05
27 *987:A2 *1033:A 0.000174935
28 *987:A2 *169:35 0.000211655
29 *1000:B1 *169:16 1.0911e-05
30 *1024:A *169:16 5.0096e-05
31 *1030:A *169:16 0
32 *1030:B *169:16 8.8266e-05
33 *1034:B1 *169:35 0.000118081
34 *1111:S *169:35 0
35 *1116:A *169:35 2.39856e-05
36 *1136:B *169:16 0.000152547
37 *1139:A *169:35 0.000234508
38 *1151:A *1039:A1 4.13315e-05
39 *1173:D *1039:A1 0.000162202
40 *1174:D *169:16 0.000109284
41 *1182:D *169:16 5.95199e-05
42 *53:16 *169:35 0.000275724
43 *116:82 *1033:A 4.12441e-05
44 *116:98 *1033:A 1.8008e-05
45 *116:98 *169:35 2.0851e-06
46 *124:36 *169:35 1.81253e-05
47 *145:75 *1039:A1 7.23009e-05
*RES
1 *1030:Y *169:16 22.955 
2 *169:16 *1034:A1 1.6 
3 *169:16 *169:35 25.98 
4 *169:35 *1039:A1 20.245 
5 *169:35 *1033:A 7.53 
*END

*D_NET *170 0.0109926
*CONN
*I *1061:A1 I *D sky130_fd_sc_hd__a21oi_1
*I *1032:A1 I *D sky130_fd_sc_hd__a21oi_2
*I *1031:X O *D sky130_fd_sc_hd__or2_1
*CAP
1 *1061:A1 0.000655449
2 *1032:A1 0.000110323
3 *1031:X 1.65033e-05
4 *170:43 0.00260297
5 *170:8 0.00207434
6 *1032:A1 *251:16 0.00012103
7 *1032:A1 *257:14 2.14725e-05
8 *1032:A1 *261:14 0.000159365
9 *1061:A1 *1061:B1 0.000478218
10 *1061:A1 *1062:B1 0.000150716
11 *170:8 *256:22 2.49909e-05
12 *170:43 *949:A_N 5.93673e-05
13 *170:43 *1022:A1_N 1.54111e-05
14 *170:43 *1061:B1 0.000122202
15 *170:43 *1075:A1 0
16 *170:43 *1158:CLK 7.10274e-05
17 *170:43 *236:194 0.000476554
18 *170:43 *261:14 0.00013757
19 *959:A1 *170:43 0.000118081
20 *963:C *170:43 0.000966749
21 *990:B *170:43 0.000337693
22 *994:A *170:43 0.000120182
23 *1022:A2_N *170:43 1.10085e-05
24 *1031:A *170:8 4.66108e-05
25 *1032:A2 *1032:A1 4.77719e-05
26 *1038:A *1032:A1 0.000167963
27 *1038:A *170:43 4.66474e-05
28 *77:43 *170:43 0.000229645
29 *77:49 *170:43 4.66108e-05
30 *88:12 *170:43 8.49936e-05
31 *88:54 *170:43 6.65725e-05
32 *100:32 *170:43 5.21706e-05
33 *104:14 *170:43 0.000315447
34 *106:57 *170:43 0.000192448
35 *108:18 *170:43 7.59731e-05
36 *110:53 *170:43 0.000438902
37 *110:70 *170:43 9.47972e-06
38 *120:76 *170:43 0.000154977
39 *120:88 *170:43 5.53549e-06
40 *123:22 *1032:A1 5.83121e-06
41 *161:12 *170:43 0.000153816
*RES
1 *1031:X *170:8 4.05 
2 *170:8 *1032:A1 6.885 
3 *170:8 *170:43 42.165 
4 *170:43 *1061:A1 13.795 
*END

*D_NET *171 0.0114374
*CONN
*I *1039:A2 I *D sky130_fd_sc_hd__o21ai_2
*I *1033:B I *D sky130_fd_sc_hd__or2_1
*I *1034:A2 I *D sky130_fd_sc_hd__a21oi_1
*I *1032:Y O *D sky130_fd_sc_hd__a21oi_2
*CAP
1 *1039:A2 4.63422e-05
2 *1033:B 0.00024415
3 *1034:A2 0.00108409
4 *1032:Y 0.00049443
5 *171:40 0.00241464
6 *171:20 0.00162717
7 *1033:B *985:B2 0.000111024
8 *1033:B *1035:B1 4.40028e-05
9 *1033:B *1122:A1 0.000154908
10 *1033:B *174:112 0.000122801
11 *1033:B *230:61 4.77757e-05
12 *1033:B *253:8 0.000241215
13 *1034:A2 *1099:B 9.2714e-05
14 *1034:A2 *1101:A_N 7.3553e-05
15 *1034:A2 *1103:A1 1.40231e-05
16 *1034:A2 *1111:A0 0
17 *1034:A2 *1122:A1 0.000335499
18 *1039:A2 *191:97 4.60061e-05
19 *1039:A2 *201:16 2.39856e-05
20 *171:40 *1003:C 0.000106199
21 *171:40 *1150:A1 0.000119246
22 *171:40 *1173:CLK 8.51649e-05
23 *171:40 *191:97 3.92959e-05
24 *171:40 *201:16 0.000188901
25 *171:40 *258:24 0.000114302
26 *965:A *171:20 0.000219706
27 *970:A *1034:A2 2.46911e-05
28 *992:B1 *1034:A2 4.8798e-05
29 *995:A *1034:A2 0.00104644
30 *1011:A2 *171:40 7.10331e-05
31 *1025:A1 *171:40 0.000190092
32 *1032:B1 *171:20 0.000802862
33 *1033:A *1033:B 0
34 *1039:A1 *171:40 0.000123805
35 *1060:A *1034:A2 3.08529e-05
36 *1120:S *1034:A2 3.67742e-05
37 *1150:S *171:20 3.46783e-05
38 *1150:S *171:40 2.20014e-05
39 *1173:D *171:40 6.17131e-05
40 *1174:D *1034:A2 0.000124634
41 *64:88 *1034:A2 0.000127271
42 *116:82 *1033:B 2.95291e-05
43 *116:98 *1033:B 9.97121e-06
44 *145:75 *171:20 0.000561166
45 *169:35 *1033:B 0
46 *169:35 *1034:A2 0
*RES
1 *1032:Y *171:20 18.05 
2 *171:20 *171:40 21.96 
3 *171:40 *1034:A2 12.3225 
4 *171:40 *1033:B 9.69 
5 *171:20 *1039:A2 2.755 
*END

*D_NET *172 0.00712515
*CONN
*I *1035:B1 I *D sky130_fd_sc_hd__a2bb2o_4
*I *1033:X O *D sky130_fd_sc_hd__or2_1
*CAP
1 *1035:B1 0.00219174
2 *1033:X 0.00219174
3 *1035:B1 *1063:B 0.000119247
4 *1035:B1 *1074:A1 1.56428e-05
5 *1035:B1 *1074:A2 2.87433e-05
6 *1035:B1 *1074:B1 1.77747e-05
7 *1035:B1 *1168:CLK 0.000351464
8 *1035:B1 *1173:CLK 0.000172161
9 *1035:B1 *174:112 5.97689e-05
10 *1035:B1 *210:49 7.88603e-05
11 *1035:B1 *230:61 0.000299701
12 *1035:B1 *233:19 6.05081e-05
13 *1035:B1 *233:133 0.000200489
14 *1035:B1 *233:137 2.49909e-05
15 *1035:B1 *237:53 0.000591562
16 *959:A3 *1035:B1 0.000473134
17 *985:B1 *1035:B1 2.92823e-05
18 *1033:B *1035:B1 4.40028e-05
19 *1040:S *1035:B1 4.66108e-05
20 *1063:A *1035:B1 1.31297e-05
21 *1168:D *1035:B1 3.13281e-05
22 *77:43 *1035:B1 2.01565e-05
23 *90:84 *1035:B1 4.85118e-05
24 *155:82 *1035:B1 1.45935e-05
*RES
1 *1033:X *1035:B1 42.61 
*END

*D_NET *173 0.0182805
*CONN
*I *1035:B2 I *D sky130_fd_sc_hd__a2bb2o_4
*I *1034:Y O *D sky130_fd_sc_hd__a21oi_1
*CAP
1 *1035:B2 0.00025142
2 *1034:Y 0.0045657
3 *173:32 0.00481712
4 *1035:B2 *1102:A 0.000285435
5 *1035:B2 *237:53 0.000106196
6 *1035:B2 *257:14 0.000155338
7 *173:32 *1040:A0 0.000174362
8 *173:32 *1041:A1 0
9 *173:32 *1048:A 0.000365272
10 *173:32 *1076:A1 0.000152356
11 *173:32 *1086:A 0.000102355
12 *173:32 *1094:A1 0.00187891
13 *173:32 *1101:A_N 5.15869e-05
14 *173:32 *211:26 0.000875692
15 *173:32 *229:22 0.00064053
16 *173:32 *233:47 0.000446813
17 *173:32 *250:29 9.1799e-05
18 *173:32 *271:24 0.000114889
19 *944:B *173:32 2.34629e-05
20 *990:A *173:32 0.000219166
21 *1000:B1 *173:32 1.00404e-05
22 *1008:B1 *173:32 7.56834e-05
23 *1021:B1 *173:32 0.000120693
24 *1023:S *173:32 0.000885228
25 *1038:A *1035:B2 3.72952e-05
26 *1038:B *1035:B2 6.44978e-06
27 *1171:D *173:32 0.000135134
28 *1175:D *173:32 0.000181869
29 *1176:D *173:32 0.00047425
30 *70:32 *173:32 0.000213505
31 *77:43 *1035:B2 7.45154e-05
32 *88:54 *173:32 0.000151831
33 *90:84 *1035:B2 5.01451e-05
34 *109:40 *173:32 4.12831e-05
35 *134:10 *173:32 4.80031e-05
36 *139:18 *173:32 5.66767e-05
37 *145:75 *173:32 0.000145963
38 *155:82 *1035:B2 0.000232957
39 *158:12 *173:32 2.05583e-05
*RES
1 *1034:Y *173:32 49.213 
2 *173:32 *1035:B2 10.3425 
*END

*D_NET *174 0.0284833
*CONN
*I *1089:A1 I *D sky130_fd_sc_hd__mux2_1
*I *1148:A1 I *D sky130_fd_sc_hd__mux2_1
*I *1075:B1 I *D sky130_fd_sc_hd__a21o_1
*I *1074:A2 I *D sky130_fd_sc_hd__o31ai_1
*I *1036:B I *D sky130_fd_sc_hd__nor2_2
*I *1111:A1 I *D sky130_fd_sc_hd__mux2_1
*I *1124:A0 I *D sky130_fd_sc_hd__mux2_1
*I *1077:A2 I *D sky130_fd_sc_hd__a211o_1
*I *1069:A I *D sky130_fd_sc_hd__inv_2
*I *1035:X O *D sky130_fd_sc_hd__a2bb2o_4
*CAP
1 *1089:A1 0.000293593
2 *1148:A1 0
3 *1075:B1 0
4 *1074:A2 1.12867e-05
5 *1036:B 0
6 *1111:A1 0.000239408
7 *1124:A0 0.00102183
8 *1077:A2 0
9 *1069:A 0.000194564
10 *1035:X 0.000234215
11 *174:124 0.00180514
12 *174:112 0.00139874
13 *174:83 0.00114884
14 *174:73 0.00117775
15 *174:57 0.0010954
16 *174:45 0.000867478
17 *174:29 0.00173645
18 *174:6 0.0012271
19 *1069:A *1146:A0 0.000263972
20 *1069:A *223:30 0.000154977
21 *1089:A1 *1087:S 0.000309777
22 *1089:A1 *1089:A0 7.08554e-05
23 *1089:A1 *1090:A 0
24 *1089:A1 *218:20 8.82207e-05
25 *1111:A1 *1111:A0 0.00025328
26 *1124:A0 *1082:A 0.000109854
27 *1124:A0 *1103:A1 3.86814e-05
28 *174:6 *1146:A0 0.000357296
29 *174:6 *237:53 8.41307e-05
30 *174:29 *218:20 0.0010963
31 *174:29 *263:50 0.000610932
32 *174:45 *977:A_N 8.23457e-05
33 *174:45 *1054:A 0.000167776
34 *174:45 *1107:A0 0.000193123
35 *174:57 *1089:A0 7.7637e-05
36 *174:57 *208:81 3.75203e-05
37 *174:57 *236:194 4.77769e-05
38 *174:73 *1054:A 2.5424e-05
39 *174:73 *1089:A0 0.000615409
40 *174:73 *1140:A 0.00041953
41 *174:73 *1152:A1 4.94758e-05
42 *174:73 *191:124 0.000166838
43 *174:73 *208:81 8.35157e-05
44 *174:73 *236:194 8.35157e-05
45 *174:73 *264:10 0.000125719
46 *174:83 *1077:B1 4.82919e-05
47 *174:83 *191:124 0.000356299
48 *174:83 *234:112 0.000107035
49 *174:112 *1077:A1 0.000201753
50 *174:112 *1077:B1 1.43191e-05
51 *174:112 *1173:CLK 0.000316765
52 *174:112 *230:61 0.000134118
53 *174:112 *234:112 1.14169e-05
54 *174:124 *1082:A 0.000218884
55 *174:124 *1103:A1 0.000165736
56 *954:A *174:45 4.61701e-06
57 *959:A3 *174:112 0.000316765
58 *965:A *174:73 1.84771e-05
59 *970:A *1124:A0 6.61748e-05
60 *984:A *174:73 0.000111738
61 *987:A1 *174:112 0.000580704
62 *987:B1 *174:112 1.19928e-05
63 *995:A *1124:A0 0.000105239
64 *1005:C *174:29 9.07806e-05
65 *1014:B *174:73 6.55431e-05
66 *1016:A1 *1124:A0 0.000305081
67 *1016:B1 *1124:A0 0.000253861
68 *1027:A *174:83 2.31456e-05
69 *1030:A *1124:A0 1.43702e-05
70 *1032:B1 *174:73 8.7152e-06
71 *1033:B *174:112 0.000122801
72 *1035:B1 *1074:A2 2.87433e-05
73 *1035:B1 *174:112 5.97689e-05
74 *1036:A *174:124 4.66108e-05
75 *1055:A3 *1089:A1 0
76 *1087:A1 *1089:A1 0.000197862
77 *1107:S *174:45 0.000321777
78 *1107:S *174:57 0.000339361
79 *1111:S *1111:A1 2.10152e-05
80 *1114:A *174:124 6.03315e-05
81 *1124:S *1124:A0 3.85641e-05
82 *1136:B *1124:A0 0.000107904
83 *1142:C *174:57 0.000168065
84 *1146:A1 *1069:A 0.000120524
85 *1146:A1 *174:6 0.00017923
86 *1146:S *1069:A 0.00026102
87 *1146:S *174:29 3.59531e-06
88 *1148:S *174:45 2.20014e-05
89 *1148:S *174:57 0.00041953
90 *1158:D *174:73 7.91885e-05
91 *1162:D *174:73 0.000257576
92 *1162:D *174:83 0.000333863
93 *1164:D *1124:A0 0.00055354
94 *1166:D *1124:A0 6.75156e-05
95 *1168:D *1074:A2 9.64638e-06
96 *1176:D *174:29 8.70354e-05
97 *30:14 *1089:A1 2.41307e-05
98 *30:14 *174:45 0.000122817
99 *49:61 *174:83 6.95037e-05
100 *50:18 *174:29 0.000196905
101 *50:18 *174:45 2.93447e-05
102 *64:88 *1124:A0 0.000280699
103 *71:43 *174:73 0.000447115
104 *88:70 *174:29 0.000193128
105 *103:32 *174:112 6.61627e-05
106 *110:70 *174:29 0.000434986
107 *112:18 *1069:A 0.000221802
108 *116:8 *174:45 0.000315816
109 *116:23 *174:29 0.000222577
110 *123:22 *174:73 0.000127658
111 *145:75 *174:73 7.01068e-05
112 *155:82 *174:6 0.00013598
*RES
1 *1035:X *174:6 7.915 
2 *174:6 *1069:A 7.585 
3 *174:6 *174:29 27.105 
4 *174:29 *174:45 19.2 
5 *174:45 *174:57 10.855 
6 *174:57 *174:73 26.82 
7 *174:73 *174:83 9.485 
8 *174:83 *1077:A2 1.6 
9 *174:83 *174:112 21.19 
10 *174:112 *174:124 10.94 
11 *174:124 *1124:A0 21.825 
12 *174:124 *1111:A1 7.155 
13 *174:112 *1036:B 1.6 
14 *174:73 *1074:A2 3.8775 
15 *174:57 *1075:B1 1.6 
16 *174:45 *1148:A1 1.6 
17 *174:29 *1089:A1 10.515 
*END

*D_NET *175 0.0193499
*CONN
*I *1065:A I *D sky130_fd_sc_hd__xnor2_1
*I *1067:A I *D sky130_fd_sc_hd__nor2_2
*I *1036:Y O *D sky130_fd_sc_hd__nor2_2
*CAP
1 *1065:A 0.00357016
2 *1067:A 0.000508237
3 *1036:Y 7.77714e-05
4 *175:12 0.00415617
5 *1065:A *978:A 0.000182968
6 *1065:A *1052:B2 0.000106699
7 *1065:A *1059:A 0.000445159
8 *1065:A *1065:B 0.000206697
9 *1065:A *1099:B 0.000487152
10 *1065:A *180:63 0.000565324
11 *1065:A *185:20 0
12 *1065:A *215:14 0.000147311
13 *1067:A *1079:A2 2.03162e-05
14 *1067:A *205:22 0.000774497
15 *175:12 *205:22 0.000142993
16 *959:A3 *175:12 1.92979e-05
17 *978:B *1065:A 0.000484713
18 *981:A2 *1067:A 6.53006e-05
19 *1028:A1 *1067:A 0.000516383
20 *1028:C1 *1067:A 0.000333137
21 *1081:A *1067:A 0.000325299
22 *1081:A *175:12 0.000122003
23 *1130:C *175:12 1.88602e-05
24 *1141:A *1067:A 0.000194566
25 *1160:D *1065:A 0.00143074
26 *1182:D *1065:A 0.00288576
27 *85:20 *1065:A 7.37253e-05
28 *95:18 *1065:A 1.40231e-05
29 *117:12 *1065:A 1.32141e-05
30 *163:18 *1065:A 0.00133243
31 *166:26 *1065:A 0.000128954
*RES
1 *1036:Y *175:12 4.57443 
2 *175:12 *1067:A 15.0658 
3 *175:12 *1065:A 15.8699 
*END

*D_NET *176 0.00697668
*CONN
*I *1052:A1 I *D sky130_fd_sc_hd__a32o_4
*I *1037:Y O *D sky130_fd_sc_hd__o21ai_1
*CAP
1 *1052:A1 0.00202457
2 *1037:Y 0.00202457
3 *1052:A1 *1059:A 0
4 *1052:A1 *1080:A 1.68183e-05
5 *1052:A1 *1099:A 0.000163919
6 *1052:A1 *191:8 9.00151e-05
7 *1052:A1 *223:30 7.03569e-05
8 *986:A2 *1052:A1 3.39336e-05
9 *988:B *1052:A1 0.000323722
10 *1037:B1 *1052:A1 0.000743195
11 *1043:A *1052:A1 0.000757105
12 *31:28 *1052:A1 6.23083e-05
13 *64:68 *1052:A1 5.96108e-05
14 *82:18 *1052:A1 7.03276e-05
15 *118:24 *1052:A1 4.89295e-05
16 *149:30 *1052:A1 0.000487296
*RES
1 *1037:Y *1052:A1 41.04 
*END

*D_NET *177 0.00274678
*CONN
*I *1039:B1 I *D sky130_fd_sc_hd__o21ai_2
*I *1038:X O *D sky130_fd_sc_hd__or2_1
*CAP
1 *1039:B1 0.000605429
2 *1038:X 0.000605429
3 *1039:B1 *972:A1 9.06149e-05
4 *1039:B1 *1009:A2 6.27378e-05
5 *1039:B1 *1072:B 2.84757e-05
6 *1039:B1 *1102:A 0.000141655
7 *1039:B1 *1187:A 5.32989e-05
8 *1039:B1 *178:18 3.85929e-05
9 *1039:B1 *201:16 4.89395e-05
10 *1039:B1 *227:67 2.31673e-05
11 *1039:B1 *234:148 5.69898e-06
12 *1039:B1 *244:12 1.38766e-05
13 *1039:B1 *251:16 4.77807e-05
14 *1039:B1 *261:14 0.000789039
15 *1009:B1 *1039:B1 1.7635e-05
16 *1010:B *1039:B1 0
17 *1129:A *1039:B1 6.81984e-05
18 *146:32 *1039:B1 0.000106209
*RES
1 *1038:X *1039:B1 20.745 
*END

*D_NET *178 0.0179045
*CONN
*I *1093:A1 I *D sky130_fd_sc_hd__a21oi_2
*I *1047:A I *D sky130_fd_sc_hd__or2_1
*I *1048:A I *D sky130_fd_sc_hd__nand2_1
*I *1039:Y O *D sky130_fd_sc_hd__o21ai_2
*CAP
1 *1093:A1 0
2 *1047:A 0.000129945
3 *1048:A 0.00297013
4 *1039:Y 0.000400207
5 *178:71 0.00140295
6 *178:18 0.00464334
7 *1047:A *1052:A2 4.89295e-05
8 *1047:A *1093:A2 4.77757e-05
9 *1047:A *196:16 2.39688e-05
10 *1048:A *1041:A1 0.000442754
11 *1048:A *1048:B 0.000271991
12 *1048:A *1094:A2 0.000783265
13 *1048:A *1102:A 0.000213632
14 *1048:A *1148:A0 4.23528e-05
15 *1048:A *1193:A 0.000597114
16 *1048:A *185:20 0.0001578
17 *178:18 *1041:A0 3.71402e-05
18 *178:18 *1072:B 7.9642e-06
19 *178:18 *1148:A0 0.000119649
20 *178:18 *1187:A 4.82919e-05
21 *178:18 *191:97 4.66108e-05
22 *178:18 *204:28 0.000103315
23 *178:18 *227:67 1.30972e-05
24 *178:18 *269:26 5.03114e-05
25 *178:71 *945:A1 1.56428e-05
26 *178:71 *1093:B1 8.41307e-05
27 *178:71 *1094:A2 1.7635e-05
28 *178:71 *1095:A2 0
29 *178:71 *1100:A_N 0.000123955
30 *178:71 *1100:B 0.000161842
31 *178:71 *1128:A0 0.000169831
32 *178:71 *1193:A 0.000326669
33 *178:71 *196:16 0.000965342
34 *178:71 *198:28 0
35 *178:71 *227:67 5.6451e-05
36 *178:71 *237:53 3.92746e-05
37 *945:A2 *178:71 0.000285688
38 *1006:A1 *178:18 0.000496172
39 *1031:B *178:71 0.000209417
40 *1035:A1_N *1048:A 0.000437767
41 *1035:A1_N *178:71 1.40078e-05
42 *1039:B1 *178:18 3.85929e-05
43 *1051:A0 *1048:A 0.000110949
44 *1060:A *1048:A 0.000112458
45 *1131:A *178:18 7.53186e-05
46 *1159:D *1048:A 0.000206907
47 *56:26 *178:71 0.000118081
48 *57:22 *1047:A 1.08758e-05
49 *57:22 *178:71 5.40596e-05
50 *84:32 *178:71 8.247e-05
51 *95:73 *178:18 0.000196009
52 *100:32 *1048:A 7.53186e-05
53 *116:60 *178:71 1.7635e-05
54 *116:82 *1048:A 5.26636e-06
55 *127:51 *178:71 0.000215828
56 *141:18 *1048:A 7.54198e-05
57 *141:18 *178:18 0.000137712
58 *173:32 *1048:A 0.000365272
*RES
1 *1039:Y *178:18 6.90677 
2 *178:18 *1048:A 13.5254 
3 *178:18 *178:71 25.9103 
4 *178:71 *1047:A 3.79 
5 *178:71 *1093:A1 1.6 
*END

*D_NET *179 0.0160521
*CONN
*I *1041:A1 I *D sky130_fd_sc_hd__mux2_1
*I *1040:X O *D sky130_fd_sc_hd__mux2_1
*CAP
1 *1041:A1 0.00393887
2 *1040:X 0.00393887
3 *1041:A1 *975:C 4.2145e-05
4 *1041:A1 *1041:A0 0.00207258
5 *1041:A1 *1048:B 0.000600307
6 *1041:A1 *1062:A2 0.000241327
7 *1041:A1 *1090:A 1.58261e-05
8 *1041:A1 *1102:A 0.00142498
9 *1041:A1 *1103:A0 0.000179818
10 *1041:A1 *185:20 0.000298297
11 *1041:A1 *218:20 0.000338787
12 *1041:A1 *235:60 1.7635e-05
13 *1041:A1 *239:76 5.91413e-05
14 *1041:A1 *263:50 1.95991e-05
15 *1041:A1 *267:26 7.06222e-05
16 *981:A2 *1041:A1 4.77806e-05
17 *981:B1 *1041:A1 9.51088e-05
18 *1003:D *1041:A1 7.12417e-05
19 *1041:S *1041:A1 8.52972e-05
20 *1048:A *1041:A1 0.000442754
21 *1051:A0 *1041:A1 3.89692e-05
22 *1060:A *1041:A1 2.39986e-05
23 *1120:S *1041:A1 3.99745e-05
24 *56:26 *1041:A1 1.32455e-05
25 *64:32 *1041:A1 0.000905129
26 *77:117 *1041:A1 5.83121e-06
27 *82:30 *1041:A1 4.22082e-05
28 *84:38 *1041:A1 0.000163961
29 *95:73 *1041:A1 0.000323484
30 *116:82 *1041:A1 0.00048292
31 *118:63 *1041:A1 1.14192e-05
32 *173:32 *1041:A1 0
*RES
1 *1040:X *1041:A1 26.6054 
*END

*D_NET *180 0.0244812
*CONN
*I *1045:A I *D sky130_fd_sc_hd__nor2_1
*I *1044:A I *D sky130_fd_sc_hd__and2_1
*I *1050:A1 I *D sky130_fd_sc_hd__mux2_1
*I *1041:X O *D sky130_fd_sc_hd__mux2_1
*CAP
1 *1045:A 0.000415507
2 *1044:A 0.000102422
3 *1050:A1 5.70435e-05
4 *1041:X 0.00111442
5 *180:63 0.00184933
6 *180:43 0.00301721
7 *180:14 0.00150647
8 *180:8 0.00170905
9 *1044:A *1044:B 8.51879e-05
10 *1044:A *183:10 9.01848e-05
11 *1045:A *1045:B 0.000230025
12 *1045:A *182:49 2.53191e-06
13 *1045:A *184:20 1.19928e-05
14 *1045:A *188:16 1.91597e-05
15 *1050:A1 *1050:A0 4.66108e-05
16 *180:8 *1105:A 0.000609594
17 *180:8 *218:20 4.66108e-05
18 *180:14 *182:49 2.3228e-05
19 *180:14 *184:20 1.00056e-05
20 *180:43 *1044:B 1.3515e-05
21 *180:43 *1065:B 8.52883e-05
22 *180:43 *1080:A 8.49205e-05
23 *180:43 *1191:A 4.94457e-05
24 *180:43 *1196:A 3.76596e-05
25 *180:43 *1197:A 0.00144697
26 *180:43 *260:40 0
27 *180:63 *215:14 0.00403755
28 *180:63 *239:64 0
29 seg[3] *180:43 1.88656e-05
30 *956:A *1044:A 6.35329e-05
31 *978:B *180:63 0.00175861
32 *980:B *1045:A 4.77719e-05
33 *988:A *180:43 0.000494902
34 *989:B_N *180:43 0.000183852
35 *1029:A1 *1045:A 0
36 *1037:A1 *180:43 9.54399e-05
37 *1037:A2 *180:8 6.3124e-06
38 *1037:A2 *180:43 0.000147661
39 *1050:S *1050:A1 4.66108e-05
40 *1050:S *180:8 3.45952e-05
41 *1065:A *180:63 0.000565324
42 *1105:C *180:8 1.70906e-05
43 *53:16 *1044:A 0.000273878
44 *106:37 *1045:A 0.00135626
45 *106:37 *180:14 0.00018158
46 *118:63 *180:8 0.000381355
47 *127:10 *180:43 0.000113222
48 *128:12 *180:43 0.000211752
49 *135:10 *1045:A 0.0013976
50 *135:10 *1050:A1 3.83194e-05
51 *135:10 *180:14 0.00030537
52 *166:26 *180:14 3.93748e-05
*RES
1 *1041:X *180:8 17.16 
2 *180:8 *180:14 6.74 
3 *180:14 *1050:A1 2.74 
4 *180:14 *180:43 38.54 
5 *180:43 *180:63 48.185 
6 *180:63 *1044:A 5.155 
7 *180:8 *1045:A 22.725 
*END

*D_NET *181 0.010447
*CONN
*I *1043:B I *D sky130_fd_sc_hd__xnor2_2
*I *1042:X O *D sky130_fd_sc_hd__a31o_1
*CAP
1 *1043:B 0.00330993
2 *1042:X 0.00330993
3 *1043:B *1044:B 1.59317e-05
4 *1043:B *1052:A2 3.92756e-05
5 *1043:B *1062:B1 8.83897e-05
6 *1043:B *1093:B1 0
7 *988:B *1043:B 0.000136968
8 *992:A1 *1043:B 6.3845e-06
9 *992:B1 *1043:B 4.23528e-05
10 *1016:A2 *1043:B 0
11 *1043:A *1043:B 0.000794597
12 *1097:A2 *1043:B 0.000287955
13 *1133:A *1043:B 0.000135188
14 *1176:D *1043:B 3.92756e-05
15 *48:38 *1043:B 0.000548463
16 *65:14 *1043:B 1.84465e-05
17 *88:70 *1043:B 0.000626673
18 *106:37 *1043:B 4.12303e-05
19 *110:70 *1043:B 1.7635e-05
20 *127:51 *1043:B 0.000988389
*RES
1 *1042:X *1043:B 28.8387 
*END

*D_NET *182 0.020433
*CONN
*I *1045:B I *D sky130_fd_sc_hd__nor2_1
*I *1044:B I *D sky130_fd_sc_hd__and2_1
*I *1043:Y O *D sky130_fd_sc_hd__xnor2_2
*CAP
1 *1045:B 0.000104522
2 *1044:B 0.00297669
3 *1043:Y 4.2529e-05
4 *182:49 0.00122171
5 *182:6 0.00413641
6 *1044:B *1052:A2 0.000282046
7 *1044:B *1052:A3 0.000110228
8 *1044:B *1068:A 0.000422349
9 *1044:B *1092:A 0.00228276
10 *1044:B *1093:B1 0.000282497
11 *1044:B *183:10 5.83121e-06
12 *1044:B *187:24 0.000230755
13 *1044:B *191:54 9.26376e-05
14 *1044:B *206:18 4.36573e-06
15 *1044:B *216:79 0.000248761
16 *1044:B *239:64 7.43284e-05
17 *1044:B *260:40 0.000129457
18 *1044:B *269:26 0.000110612
19 *1045:B *184:20 0.000169791
20 *182:49 *184:20 0.000242327
21 *980:B *1045:B 4.12406e-05
22 *988:B *182:6 4.66108e-05
23 *988:C *182:6 4.66108e-05
24 *1011:A1 *1044:B 0.00181277
25 *1029:A1 *182:49 0.000284339
26 *1043:B *1044:B 1.59317e-05
27 *1044:A *1044:B 8.51879e-05
28 *1045:A *1045:B 0.000230025
29 *1045:A *182:49 2.53191e-06
30 *1165:D *182:49 0.00219359
31 *53:16 *1044:B 0.000143089
32 *106:37 *182:49 1.5903e-05
33 *127:10 *1044:B 5.31159e-05
34 *127:10 *182:49 2.49909e-05
35 *127:51 *1044:B 0.000126737
36 *135:10 *182:49 0.00128687
37 *150:48 *182:49 0.000227733
38 *166:26 *1044:B 6.65877e-05
39 *166:26 *182:49 0.000521807
40 *180:14 *182:49 2.3228e-05
41 *180:43 *1044:B 1.3515e-05
*RES
1 *1043:Y *182:6 2.395 
2 *182:6 *1044:B 19.4361 
3 *182:6 *182:49 47.27 
4 *182:49 *1045:B 4.825 
*END

*D_NET *183 0.0193797
*CONN
*I *1046:A I *D sky130_fd_sc_hd__nor2_2
*I *1093:B1 I *D sky130_fd_sc_hd__a21oi_2
*I *1044:X O *D sky130_fd_sc_hd__and2_1
*CAP
1 *1046:A 3.78136e-05
2 *1093:B1 0.00436121
3 *1044:X 0.000697872
4 *183:10 0.0050969
5 *1046:A *191:34 0.000103464
6 *1093:B1 *1052:A3 0.00125765
7 *1093:B1 *1052:B2 1.48335e-05
8 *1093:B1 *1080:B 0
9 *1093:B1 *1194:A 0.000277305
10 *1093:B1 *1196:A 0.000182242
11 *1093:B1 *221:12 5.44027e-05
12 *1093:B1 *234:18 7.91885e-05
13 *1093:B1 *236:73 0.000116802
14 *1093:B1 *236:100 1.31227e-05
15 *183:10 *187:24 0.00012905
16 *183:10 *191:34 0.000380356
17 *938:A *1093:B1 5.65948e-05
18 *955:A_N *1093:B1 9.84109e-05
19 *988:C *1093:B1 6.69362e-05
20 *992:A1 *1093:B1 0.000153825
21 *992:B1 *1093:B1 5.74644e-06
22 *1006:A1 *1093:B1 0.000146285
23 *1011:A1 *1093:B1 0.000387728
24 *1024:B *1093:B1 0.000174041
25 *1043:B *1093:B1 0
26 *1044:A *183:10 9.01848e-05
27 *1044:B *1093:B1 0.000282497
28 *1044:B *183:10 5.83121e-06
29 *1097:A2 *1093:B1 3.45551e-05
30 *1164:D *183:10 3.08314e-05
31 *1170:D *1093:B1 0.000451533
32 *1172:D *1093:B1 0
33 *1176:D *1093:B1 0.000103471
34 *1181:D *1093:B1 0.0008918
35 *32:60 *1093:B1 0.00103636
36 *48:38 *1093:B1 3.23683e-05
37 *49:39 *1093:B1 0.000455741
38 *53:16 *183:10 0.000137693
39 *56:26 *1093:B1 5.56205e-06
40 *57:22 *1093:B1 4.7003e-05
41 *64:68 *1093:B1 0.000166866
42 *82:54 *1093:B1 0.000230222
43 *82:135 *1093:B1 0.00089776
44 *108:49 *1093:B1 5.15071e-05
45 *116:98 *1046:A 0.000102479
46 *116:98 *1093:B1 0.000108538
47 *116:98 *183:10 0
48 *121:18 *1093:B1 0.00023478
49 *163:18 *183:10 6.16226e-06
50 *178:71 *1093:B1 8.41307e-05
*RES
1 *1044:X *183:10 14.1 
2 *183:10 *1093:B1 42.8751 
3 *183:10 *1046:A 4.98 
*END

*D_NET *184 0.0175948
*CONN
*I *1046:B I *D sky130_fd_sc_hd__nor2_2
*I *1045:Y O *D sky130_fd_sc_hd__nor2_1
*CAP
1 *1046:B 8.12891e-05
2 *1045:Y 0.00319203
3 *184:20 0.00327332
4 *1046:B *1122:A1 4.77807e-05
5 *184:20 *1052:A2 0.000621972
6 *184:20 *1052:A3 3.83964e-05
7 *184:20 *1196:A 0.00232774
8 *184:20 *216:79 0.000145799
9 *938:A *184:20 5.68523e-06
10 *1016:A2 *184:20 0.00014884
11 *1016:B2 *184:20 0.000111574
12 *1029:A1 *184:20 1.25926e-05
13 *1045:A *184:20 1.19928e-05
14 *1045:B *184:20 0.000169791
15 *1052:B1 *184:20 0.000360637
16 *1123:A *1046:B 0.000421149
17 *1163:D *184:20 0.000248698
18 *106:37 *184:20 0.00146717
19 *150:48 *184:20 0.00333428
20 *157:30 *1046:B 0.000215477
21 *166:26 *184:20 0.00110626
22 *180:14 *184:20 1.00056e-05
23 *182:49 *184:20 0.000242327
*RES
1 *1045:Y *184:20 47.0454 
2 *184:20 *1046:B 5.5 
*END

*D_NET *185 0.0279764
*CONN
*I *1047:B I *D sky130_fd_sc_hd__or2_1
*I *1093:A2 I *D sky130_fd_sc_hd__a21oi_2
*I *1048:B I *D sky130_fd_sc_hd__nand2_1
*I *1046:Y O *D sky130_fd_sc_hd__nor2_2
*CAP
1 *1047:B 0
2 *1093:A2 1.66171e-05
3 *1048:B 0.000843979
4 *1046:Y 0.0018915
5 *185:63 0.00389922
6 *185:20 0.00661808
7 *1048:B *1067:B 8.23457e-05
8 *1048:B *1079:B1 7.92445e-05
9 *1048:B *187:24 4.77757e-05
10 *1093:A2 *196:16 1.56428e-05
11 *185:20 *950:B 0.000132978
12 *185:20 *1122:A1 0.00022004
13 *185:63 *1052:A2 7.9642e-06
14 *185:63 *1089:A0 0.00219747
15 *185:63 *1098:A2 0
16 *185:63 *1128:A1 0.000331431
17 *185:63 *211:26 0.00172447
18 *185:63 *270:28 0.00145097
19 *938:A *185:20 0
20 *958:B *185:63 0.000173713
21 *963:A_N *185:63 0
22 *964:A *185:63 0
23 *980:A *185:63 0
24 *998:A *185:63 0.000843305
25 *1040:S *1048:B 0.000581521
26 *1041:A1 *1048:B 0.000600307
27 *1041:A1 *185:20 0.000298297
28 *1047:A *1093:A2 4.77757e-05
29 *1048:A *1048:B 0.000271991
30 *1048:A *185:20 0.0001578
31 *1060:A *1048:B 6.13375e-05
32 *1065:A *185:20 0
33 *1081:A *185:20 0.000533168
34 *1157:D *1048:B 0.000226455
35 *1183:D *185:63 1.88602e-05
36 *48:38 *185:20 4.12831e-05
37 *58:28 *185:63 0.00158353
38 *85:20 *185:20 0.000196119
39 *95:18 *185:20 0.00141838
40 *95:53 *185:20 3.92756e-05
41 *106:65 *185:63 0
42 *116:98 *185:20 0.000283641
43 *146:32 *185:63 1.59549e-05
44 *161:32 *1048:B 3.76213e-05
45 *167:18 *185:63 0.000986322
46 *167:38 *185:63 0
*RES
1 *1046:Y *185:20 13.0758 
2 *185:20 *1048:B 17.3478 
3 *185:20 *185:63 44.0129 
4 *185:63 *1093:A2 2.05 
5 *185:63 *1047:B 1.6 
*END

*D_NET *186 0.0119828
*CONN
*I *1052:A2 I *D sky130_fd_sc_hd__a32o_4
*I *1047:X O *D sky130_fd_sc_hd__or2_1
*CAP
1 *1052:A2 0.00506026
2 *1047:X 0.00506026
3 *1052:A2 *1052:A3 6.69896e-05
4 *1052:A2 *1196:A 1.66586e-05
5 *1052:A2 *191:54 0.000287436
6 *1052:A2 *196:16 4.83898e-05
7 *1052:A2 *216:79 0.000409048
8 *1052:A2 *234:31 5.02126e-06
9 *958:B *1052:A2 4.36573e-06
10 *1043:B *1052:A2 3.92756e-05
11 *1044:B *1052:A2 0.000282046
12 *1047:A *1052:A2 4.89295e-05
13 *106:37 *1052:A2 2.41628e-05
14 *184:20 *1052:A2 0.000621972
15 *185:63 *1052:A2 7.9642e-06
*RES
1 *1047:X *1052:A2 19.089 
*END

*D_NET *187 0.0187131
*CONN
*I *1052:A3 I *D sky130_fd_sc_hd__a32o_4
*I *1048:Y O *D sky130_fd_sc_hd__nand2_1
*CAP
1 *1052:A3 0.00117185
2 *1048:Y 0.00301456
3 *187:24 0.00418641
4 *1052:A3 *234:31 4.04634e-05
5 *187:24 *1040:A0 0.000155608
6 *187:24 *1051:A1 0.000244804
7 *187:24 *1076:A3 0.00130323
8 *187:24 *1092:A 0.000302863
9 *187:24 *216:20 0
10 *187:24 *229:22 9.40524e-05
11 *956:A *187:24 0.00012406
12 *981:A3 *187:24 0
13 *1011:A1 *1052:A3 5.06339e-05
14 *1011:A1 *187:24 8.84299e-06
15 *1016:B2 *1052:A3 0.000739843
16 *1040:S *187:24 5.6314e-05
17 *1044:B *1052:A3 0.000110228
18 *1044:B *187:24 0.000230755
19 *1048:B *187:24 4.77757e-05
20 *1052:A2 *1052:A3 6.69896e-05
21 *1052:B1 *1052:A3 0.00104786
22 *1093:B1 *1052:A3 0.00125765
23 *1164:D *187:24 9.85301e-05
24 *1182:D *187:24 0.000354592
25 *1185:A *187:24 0.00080838
26 *1190:A *187:24 1.79483e-05
27 *116:98 *187:24 0
28 *147:16 *187:24 5.83121e-06
29 *158:12 *187:24 0.00221148
30 *163:18 *187:24 1.7635e-05
31 *168:55 *187:24 0.000776441
32 *183:10 *187:24 0.00012905
33 *184:20 *1052:A3 3.83964e-05
*RES
1 *1048:Y *187:24 48.7624 
2 *187:24 *1052:A3 7.7719 
*END

*D_NET *188 0.00972169
*CONN
*I *1050:A0 I *D sky130_fd_sc_hd__mux2_1
*I *1049:Y O *D sky130_fd_sc_hd__inv_2
*CAP
1 *1050:A0 0.000663738
2 *1049:Y 0.00192504
3 *188:16 0.00258878
4 *1050:A0 *1080:B 5.78448e-05
5 *188:16 *1078:A3 6.59891e-05
6 *188:16 *256:22 8.64421e-05
7 seg[0] *1050:A0 1.12156e-05
8 seg[1] *1050:A0 1.17114e-05
9 *953:A2 *188:16 1.88153e-05
10 *967:A *1050:A0 0
11 *980:A *188:16 8.35157e-05
12 *980:B *1050:A0 0.00122244
13 *980:B *188:16 0.000157393
14 *982:B *188:16 0.000301479
15 *1029:A1 *1050:A0 0.000485014
16 *1031:B *188:16 8.52845e-05
17 *1042:A3 *188:16 5.84698e-05
18 *1045:A *188:16 1.91597e-05
19 *1050:A1 *1050:A0 4.66108e-05
20 *1050:S *1050:A0 8.31583e-05
21 *1105:C *1050:A0 0.000176228
22 *1153:A *1050:A0 0.000126924
23 *120:88 *188:16 0.000267342
24 *128:12 *1050:A0 0.000360481
25 *128:38 *1050:A0 7.02675e-06
26 *150:60 *188:16 0.000811585
*RES
1 *1049:Y *188:16 32.14 
2 *188:16 *1050:A0 23.88 
*END

*D_NET *189 0.0274317
*CONN
*I *1051:A1 I *D sky130_fd_sc_hd__mux2_1
*I *1050:X O *D sky130_fd_sc_hd__mux2_1
*CAP
1 *1051:A1 0.0090137
2 *1050:X 0.0090137
3 *1051:A1 *1052:B2 0.00014383
4 *1051:A1 *1062:B1 6.26808e-05
5 *1051:A1 *1076:A3 0.00018569
6 *1051:A1 *1080:B 0
7 *1051:A1 *206:18 5.91496e-05
8 *1051:A1 *211:26 1.98547e-06
9 *1051:A1 *260:40 1.7211e-05
10 *939:A *1051:A1 0.00145852
11 *967:A *1051:A1 2.49909e-05
12 *1051:A0 *1051:A1 0.000224911
13 *1051:S *1051:A1 0.000224911
14 *1061:A2 *1051:A1 0
15 *1153:A *1051:A1 0.00018521
16 *1182:RESET_B *1051:A1 9.10613e-05
17 *70:32 *1051:A1 0.00537171
18 *147:16 *1051:A1 0.000246367
19 *152:24 *1051:A1 0.000449835
20 *168:55 *1051:A1 0.000411471
21 *187:24 *1051:A1 0.000244804
*RES
1 *1050:X *1051:A1 21.9694 
*END

*D_NET *190 0.0230437
*CONN
*I *1052:B2 I *D sky130_fd_sc_hd__a32o_4
*I *1051:X O *D sky130_fd_sc_hd__mux2_1
*CAP
1 *1052:B2 0.00728176
2 *1051:X 0.00728176
3 *1052:B2 *955:B 5.03627e-05
4 *1052:B2 *1040:A0 0.00030332
5 *1052:B2 *1062:B1 3.13419e-05
6 *1052:B2 *1065:B 0.000210598
7 *1052:B2 *1068:A 0.000238532
8 *1052:B2 *1092:A 0.000103618
9 *1052:B2 *1098:A1 2.22315e-05
10 *1052:B2 *1113:A0 2.67661e-05
11 *1052:B2 *1142:B 0
12 *1052:B2 *198:24 4.24309e-05
13 *1052:B2 *211:26 0.000158435
14 *1052:B2 *216:20 0.00078359
15 *1052:B2 *221:43 0.00205771
16 *1052:B2 *259:14 0.000112387
17 *1052:B2 *271:24 0.000517234
18 *939:A *1052:B2 0
19 *955:A_N *1052:B2 0
20 *981:A3 *1052:B2 0.000295732
21 *1024:B *1052:B2 7.9642e-06
22 *1051:A1 *1052:B2 0.00014383
23 *1065:A *1052:B2 0.000106699
24 *1093:B1 *1052:B2 1.48335e-05
25 *70:32 *1052:B2 0.0029911
26 *153:24 *1052:B2 2.0189e-05
27 *166:26 *1052:B2 0.00024131
*RES
1 *1051:X *1052:B2 24.0333 
*END

*D_NET *191 0.0333467
*CONN
*I *1066:A I *D sky130_fd_sc_hd__inv_2
*I *1078:A1 I *D sky130_fd_sc_hd__o31ai_2
*I *1064:A I *D sky130_fd_sc_hd__nor2_1
*I *1079:B1 I *D sky130_fd_sc_hd__a211o_1
*I *1150:A1 I *D sky130_fd_sc_hd__mux2_1
*I *1126:A0 I *D sky130_fd_sc_hd__mux2_1
*I *1113:A1 I *D sky130_fd_sc_hd__mux2_1
*I *1091:A1 I *D sky130_fd_sc_hd__mux2_1
*I *1052:X O *D sky130_fd_sc_hd__a32o_4
*CAP
1 *1066:A 0.000344325
2 *1078:A1 0.000498688
3 *1064:A 0
4 *1079:B1 0.000321939
5 *1150:A1 7.5725e-05
6 *1126:A0 7.92652e-05
7 *1113:A1 0
8 *1091:A1 0
9 *1052:X 4.41516e-05
10 *191:128 0.000880959
11 *191:124 0.00157611
12 *191:97 0.00125613
13 *191:79 0.00152978
14 *191:54 0.00176662
15 *191:34 0.00210794
16 *191:16 0.00245376
17 *191:8 0.00155387
18 *1066:A *935:A 4.66474e-05
19 *1066:A *957:A 0.000290723
20 *1066:A *234:163 0.000439695
21 *1078:A1 *1078:A2 0.000247414
22 *1078:A1 *202:14 7.22045e-05
23 *1079:B1 *1067:B 0.000243889
24 *1079:B1 *1079:C1 4.06832e-05
25 *1079:B1 *1102:A 0.00013036
26 *1079:B1 *252:54 8.73589e-05
27 *1126:A0 *1177:CLK 9.58678e-06
28 *1150:A1 *201:16 4.21973e-05
29 *191:16 *1059:A 0
30 *191:16 *234:31 0.00015354
31 *191:16 *236:100 0.000212114
32 *191:16 *252:20 7.56599e-05
33 *191:34 *1091:A0 4.77757e-05
34 *191:34 *1092:A 0.000304972
35 *191:34 *1122:A1 9.84942e-05
36 *191:34 *1156:A 0.000158519
37 *191:54 *957:A 0.000211085
38 *191:79 *957:A 0.000352241
39 *191:79 *1003:A_N 2.35896e-05
40 *191:79 *1117:D_N 2.22315e-05
41 *191:79 *1154:A 7.33639e-05
42 *191:97 *972:A1 0.000117811
43 *191:97 *1056:A2 0.00041758
44 *191:97 *1072:B 0.000217209
45 *191:97 *1187:A 5.58462e-05
46 *191:97 *198:24 0.000269303
47 *191:97 *201:16 2.60185e-06
48 *191:97 *234:8 3.69766e-05
49 *191:97 *234:16 9.68083e-06
50 *191:97 *234:91 0.00013534
51 *191:124 *1152:A1 4.78726e-05
52 *191:124 *1186:A 0.000121331
53 *191:124 *1187:A 5.83121e-06
54 *191:124 *1193:A 1.17614e-05
55 *191:124 *201:52 0.000190123
56 *191:124 *230:86 4.25139e-05
57 *191:124 *236:39 0.000339419
58 *191:128 *1064:B 0.00066663
59 *191:128 *202:14 0.00106666
60 *191:128 *252:54 2.15454e-05
61 *937:A *191:54 0.000225733
62 *937:A *191:79 1.07306e-05
63 *970:A *1079:B1 0.000133522
64 *984:B *1078:A1 0.000312757
65 *987:A2 *1126:A0 5.5692e-05
66 *1011:A2 *191:34 4.80285e-05
67 *1016:A2 *191:54 2.54468e-05
68 *1019:A *191:34 0.00151644
69 *1019:B *191:34 4.77807e-05
70 *1025:A1 *191:124 4.98216e-05
71 *1039:A2 *191:97 4.60061e-05
72 *1044:B *191:54 9.26376e-05
73 *1046:A *191:34 0.000103464
74 *1048:B *1079:B1 7.92445e-05
75 *1052:A1 *191:8 9.00151e-05
76 *1052:A2 *191:54 0.000287436
77 *1060:A *1079:B1 3.99332e-05
78 *1073:A *1079:B1 1.24955e-05
79 *1113:S *191:16 1.07285e-05
80 *1113:S *191:34 8.01049e-05
81 *1116:A *191:128 0.00029854
82 *1118:A *191:16 0.000120279
83 *1122:A0 *191:34 0.000119866
84 *1123:A *191:34 5.69036e-05
85 *1150:S *1150:A1 0.000222983
86 *1150:S *191:97 4.66108e-05
87 *1150:S *191:124 0.000175059
88 *1160:D *1079:B1 0.000121375
89 *1177:D *1126:A0 0.00010873
90 *1178:D *1066:A 0.000267296
91 *1178:D *1126:A0 7.96104e-06
92 *1178:D *191:79 0.000219986
93 *1182:D *191:54 0.000890515
94 *1183:D *1079:B1 8.06306e-05
95 *1183:D *191:128 0.00113886
96 *31:28 *1150:A1 4.92971e-05
97 *31:28 *191:8 9.00151e-05
98 *31:28 *191:124 0.000283105
99 *49:61 *191:124 0.000128977
100 *53:16 *191:34 0.000899051
101 *56:26 *191:16 4.66108e-05
102 *71:43 *191:124 0.000101903
103 *77:117 *191:97 0.000276758
104 *81:72 *191:79 0.000170891
105 *95:73 *1066:A 0.000439695
106 *119:46 *1078:A1 0.000104588
107 *150:10 *191:34 4.99619e-05
108 *155:22 *191:34 0.000303911
109 *158:12 *191:34 0.000490267
110 *161:32 *1079:B1 9.8057e-06
111 *171:40 *1150:A1 0.000119246
112 *171:40 *191:97 3.92959e-05
113 *174:73 *191:124 0.000166838
114 *174:83 *191:124 0.000356299
115 *178:18 *191:97 4.66108e-05
116 *183:10 *191:34 0.000380356
*RES
1 *1052:X *191:8 5.085 
2 *191:8 *191:16 8.555 
3 *191:16 *191:34 49.495 
4 *191:34 *1091:A1 1.6 
5 *191:16 *1113:A1 1.6 
6 *191:8 *191:54 3.8386 
7 *191:54 *1126:A0 5.01617 
8 *191:54 *191:79 4.63497 
9 *191:79 *191:97 21.35 
10 *191:97 *1150:A1 6.045 
11 *191:97 *191:124 19.92 
12 *191:124 *191:128 17.37 
13 *191:128 *1079:B1 14.3787 
14 *191:128 *1064:A 1.6 
15 *191:124 *1078:A1 9.445 
16 *191:79 *1066:A 12.84 
*END

*D_NET *192 0.00551425
*CONN
*I *1056:A2 I *D sky130_fd_sc_hd__o211ai_1
*I *1053:X O *D sky130_fd_sc_hd__or2_1
*CAP
1 *1056:A2 0.0013792
2 *1053:X 0.0013792
3 *1056:A2 *972:A1 1.92979e-05
4 *1056:A2 *1009:A2 6.60041e-05
5 *1056:A2 *1187:A 0.000128547
6 *1056:A2 *198:24 3.63206e-05
7 *1056:A2 *227:67 6.61627e-05
8 *1056:A2 *234:91 7.20899e-05
9 *1056:A2 *234:93 3.75126e-05
10 *1056:A2 *234:95 0.000228228
11 *1056:A2 *236:49 8.36437e-05
12 *1056:A2 *244:12 5.83121e-06
13 *1056:A2 *261:14 5.69248e-06
14 *965:A *1056:A2 0.000166658
15 *1010:B *1056:A2 0.000111543
16 *1011:A2 *1056:A2 0.000265744
17 *84:46 *1056:A2 0.00047543
18 *84:130 *1056:A2 0.000262185
19 *145:75 *1056:A2 0.000307376
20 *191:97 *1056:A2 0.00041758
*RES
1 *1053:X *1056:A2 34.075 
*END

*D_NET *193 0.00590858
*CONN
*I *1056:B1 I *D sky130_fd_sc_hd__o211ai_1
*I *1054:X O *D sky130_fd_sc_hd__or2_1
*CAP
1 *1056:B1 0.00111823
2 *1054:X 0.00111823
3 *1056:B1 *945:A1 0.000551363
4 *1056:B1 *1056:C1 4.66108e-05
5 *1056:B1 *1087:A0 7.60607e-05
6 *1056:B1 *1098:A1 1.92979e-05
7 *1056:B1 *1099:B 1.00941e-05
8 *1056:B1 *207:18 0.00042074
9 *1056:B1 *223:30 0.000623211
10 *946:B *1056:B1 0.000272844
11 *972:B1 *1056:B1 6.04355e-05
12 *992:B1 *1056:B1 0.000154981
13 *1146:A1 *1056:B1 9.11388e-05
14 *56:26 *1056:B1 6.14728e-05
15 *57:22 *1056:B1 0.000267855
16 *57:36 *1056:B1 0.000360709
17 *82:135 *1056:B1 8.24728e-05
18 *82:154 *1056:B1 0.000335219
19 *84:130 *1056:B1 0.000176315
20 *108:65 *1056:B1 2.2942e-05
21 *167:38 *1056:B1 3.8353e-05
*RES
1 *1054:X *1056:B1 36.87 
*END

*D_NET *194 0.0077097
*CONN
*I *1056:C1 I *D sky130_fd_sc_hd__o211ai_1
*I *1055:X O *D sky130_fd_sc_hd__o31a_1
*CAP
1 *1056:C1 0.00139763
2 *1055:X 0.00139763
3 *1056:C1 *1055:A2 8.35679e-05
4 *1056:C1 *1056:A1 0
5 *1056:C1 *221:43 0.00141552
6 *1056:C1 *235:60 0.000879957
7 *1056:C1 *267:26 0.00130907
8 *1020:B *1056:C1 0.000107806
9 *1041:S *1056:C1 0.000130827
10 *1055:A3 *1056:C1 8.52972e-05
11 *1056:B1 *1056:C1 4.66108e-05
12 *65:14 *1056:C1 4.75059e-05
13 *81:12 *1056:C1 1.92979e-05
14 *84:26 *1056:C1 0
15 *84:130 *1056:C1 0.00029854
16 *110:78 *1056:C1 0.000409138
17 *112:30 *1056:C1 2.68464e-05
18 *112:41 *1056:C1 5.44672e-05
*RES
1 *1055:X *1056:C1 42.87 
*END

*D_NET *195 0.00488521
*CONN
*I *1057:A I *D sky130_fd_sc_hd__dlymetal6s2s_1
*I *1056:Y O *D sky130_fd_sc_hd__o211ai_1
*CAP
1 *1057:A 0.00107838
2 *1056:Y 0.00107838
3 *1057:A *1005:B 0.000175071
4 *1057:A *1098:A2 0.000894699
5 *1057:A *260:40 0.000249928
6 *967:A *1057:A 0.000269847
7 *1006:A3 *1057:A 5.21806e-05
8 *1182:RESET_B *1057:A 7.06865e-05
9 *84:130 *1057:A 0.000586995
10 *118:63 *1057:A 0.000429043
*RES
1 *1056:Y *1057:A 28.545 
*END

*D_NET *196 0.0198019
*CONN
*I *1095:A1 I *D sky130_fd_sc_hd__o21a_1
*I *1094:A1 I *D sky130_fd_sc_hd__a21oi_1
*I *1062:A2 I *D sky130_fd_sc_hd__a31o_2
*I *1057:X O *D sky130_fd_sc_hd__dlymetal6s2s_1
*CAP
1 *1095:A1 0.000223259
2 *1094:A1 0.00194806
3 *1062:A2 0.000559698
4 *1057:X 0.00114212
5 *196:31 0.00233421
6 *196:16 0.0018647
7 *1062:A2 *1128:A0 0.000343696
8 *1062:A2 *201:6 4.66108e-05
9 *1094:A1 *1094:A2 0.00183097
10 *1094:A1 *1100:A_N 0.000128411
11 *1094:A1 *1196:A 5.04594e-05
12 *1095:A1 *1095:A2 0.000164064
13 *1095:A1 *1107:A0 0.000334447
14 *1095:A1 *223:30 0.000156754
15 *1095:A1 *256:22 0.000164497
16 *196:16 *197:28 0.000119251
17 *196:31 *1100:A_N 0.00030517
18 *196:31 *1196:A 5.46937e-05
19 *959:A3 *1094:A1 1.7635e-05
20 *1008:B1 *1094:A1 3.14528e-05
21 *1022:B1 *1095:A1 3.83194e-05
22 *1031:B *1062:A2 0.000359753
23 *1031:B *196:16 5.09707e-05
24 *1035:A1_N *1094:A1 0.00151466
25 *1041:A1 *1062:A2 0.000241327
26 *1047:A *196:16 2.39688e-05
27 *1052:A2 *196:16 4.83898e-05
28 *1093:A2 *196:16 1.56428e-05
29 *1094:B1 *1094:A1 0.000823802
30 *1176:D *1094:A1 2.14639e-06
31 *1180:D *1094:A1 8.35106e-05
32 *56:26 *1062:A2 2.10691e-05
33 *56:26 *196:31 9.35987e-05
34 *84:38 *1062:A2 8.49312e-05
35 *88:54 *1094:A1 9.4675e-06
36 *106:37 *1094:A1 2.57386e-05
37 *106:95 *1094:A1 0.000302133
38 *112:30 *1062:A2 0.000720254
39 *119:46 *1094:A1 0.000343517
40 *123:22 *1094:A1 1.7635e-05
41 *155:98 *1062:A2 0.000258669
42 *155:98 *196:16 5.8023e-05
43 *173:32 *1094:A1 0.00187891
44 *178:71 *196:16 0.000965342
*RES
1 *1057:X *196:16 20.3625 
2 *196:16 *1062:A2 17.8125 
3 *196:16 *196:31 1.00413 
4 *196:31 *1094:A1 22.6992 
5 *196:31 *1095:A1 9.8975 
*END

*D_NET *197 0.0163166
*CONN
*I *1059:A I *D sky130_fd_sc_hd__dlymetal6s2s_1
*I *1058:X O *D sky130_fd_sc_hd__and4_1
*CAP
1 *1059:A 0.00201433
2 *1058:X 0.00129538
3 *197:28 0.00330971
4 *1059:A *1068:A 0.000165818
5 *1059:A *1084:A 8.03355e-05
6 *1059:A *1113:A0 5.29896e-05
7 *1059:A *216:14 0
8 *1059:A *218:20 3.69766e-05
9 *1059:A *252:20 5.93673e-05
10 *197:28 *1128:A1 0.000989582
11 *197:28 *1154:A 0.000119756
12 *197:28 *218:20 0.00113501
13 *946:B *197:28 0.000466331
14 *982:A *197:28 0.000117673
15 *988:B *1059:A 0
16 *992:B1 *197:28 3.86814e-05
17 *1006:A2 *1059:A 0.000189594
18 *1010:A_N *1059:A 0.00052902
19 *1023:S *1059:A 0.000143539
20 *1052:A1 *1059:A 0
21 *1054:B *197:28 0.00107742
22 *1058:D *197:28 0.000307637
23 *1065:A *1059:A 0.000445159
24 *1125:A *1059:A 0
25 *1147:A *197:28 0.000479138
26 *1182:D *1059:A 0.000164507
27 *50:18 *197:28 0.000175278
28 *64:68 *1059:A 4.4113e-05
29 *64:68 *197:28 0.000325799
30 *88:70 *197:28 0.000138962
31 *98:79 *197:28 0.000233202
32 *100:65 *1059:A 0.000117278
33 *101:8 *1059:A 0.000480393
34 *127:51 *1059:A 0
35 *166:26 *1059:A 0.00146434
36 *191:16 *1059:A 0
37 *196:16 *197:28 0.000119251
*RES
1 *1058:X *197:28 47.9675 
2 *197:28 *1059:A 32.8126 
*END

*D_NET *198 0.0217517
*CONN
*I *1062:A3 I *D sky130_fd_sc_hd__a31o_2
*I *1095:A2 I *D sky130_fd_sc_hd__o21a_1
*I *1094:A2 I *D sky130_fd_sc_hd__a21oi_1
*I *1059:X O *D sky130_fd_sc_hd__dlymetal6s2s_1
*CAP
1 *1062:A3 0.000171605
2 *1095:A2 0.000326831
3 *1094:A2 0.00290345
4 *1059:X 0.00121043
5 *198:28 0.00380054
6 *198:24 0.00195229
7 *1062:A3 *201:6 3.96737e-05
8 *1062:A3 *201:16 0.000135464
9 *1094:A2 *1100:B 1.88656e-05
10 *1095:A2 *1100:A_N 1.79536e-05
11 *1095:A2 *1107:A0 4.46808e-07
12 *1095:A2 *223:30 2.01565e-05
13 *1095:A2 *256:22 0.000183838
14 *198:24 *955:B 0.000233466
15 *198:24 *1072:B 0.000128792
16 *198:24 *1113:A0 6.90435e-05
17 *198:24 *1164:CLK 0.000168685
18 *198:24 *201:16 0.000149018
19 *198:24 *234:16 0
20 *198:24 *234:31 0
21 *198:24 *236:49 2.71417e-05
22 *198:24 *236:73 6.38352e-05
23 *198:24 *259:14 0.000664903
24 *198:28 *935:A 0.00014506
25 *198:28 *975:C 0.00031618
26 *198:28 *1072:B 0
27 *198:28 *1146:A0 0.000180396
28 *198:28 *234:8 1.37527e-05
29 *198:28 *234:91 5.441e-05
30 *198:28 *263:50 1.74629e-05
31 *959:A3 *1094:A2 9.93728e-05
32 *1010:B *198:24 0.000577546
33 *1018:A *198:24 8.75751e-05
34 *1022:B1 *1095:A2 0.000121643
35 *1024:B *198:24 1.94387e-05
36 *1035:A1_N *1094:A2 1.32102e-05
37 *1035:A1_N *198:28 7.85994e-05
38 *1035:A2_N *198:28 0
39 *1042:A1 *1095:A2 0
40 *1048:A *1094:A2 0.000783265
41 *1052:B1 *198:24 4.04634e-05
42 *1052:B2 *198:24 4.24309e-05
43 *1056:A2 *198:24 3.63206e-05
44 *1058:D *1095:A2 1.94505e-05
45 *1094:A1 *1094:A2 0.00183097
46 *1094:B1 *1094:A2 0.00082374
47 *1095:A1 *1095:A2 0.000164064
48 *1161:D *198:24 7.36438e-05
49 *1172:D *198:24 0.000785947
50 *1178:D *198:28 4.39587e-05
51 *1180:D *1094:A2 8.35068e-05
52 *57:50 *198:24 0
53 *77:117 *198:28 0
54 *83:94 *198:28 0.000108137
55 *84:46 *1062:A3 0.000441376
56 *84:46 *198:24 4.66108e-05
57 *84:46 *198:28 2.73058e-05
58 *84:83 *198:24 5.63183e-05
59 *84:130 *1062:A3 3.66286e-05
60 *106:37 *1095:A2 0
61 *106:95 *1094:A2 0.00029188
62 *112:30 *1062:A3 0.000149302
63 *116:60 *1094:A2 0.000782058
64 *116:82 *1094:A2 0.000226631
65 *118:24 *198:24 0
66 *119:46 *1095:A2 2.34168e-05
67 *123:22 *1094:A2 9.83106e-05
68 *127:51 *1094:A2 0.000231452
69 *127:51 *1095:A2 2.79424e-05
70 *127:51 *198:28 0.000178539
71 *178:71 *1094:A2 1.7635e-05
72 *178:71 *1095:A2 0
73 *178:71 *198:28 0
74 *191:97 *198:24 0.000269303
*RES
1 *1059:X *198:24 38.295 
2 *198:24 *198:28 13.58 
3 *198:28 *1094:A2 31.3688 
4 *198:28 *1095:A2 9.69 
5 *198:24 *1062:A3 6.55 
*END

*D_NET *199 0.00311481
*CONN
*I *1061:B1 I *D sky130_fd_sc_hd__a21oi_1
*I *1060:X O *D sky130_fd_sc_hd__clkbuf_1
*CAP
1 *1061:B1 0.00114136
2 *1060:X 0.00114136
3 *968:A *1061:B1 4.7167e-05
4 *1014:B *1061:B1 0.000132209
5 *1060:A *1061:B1 5.23032e-05
6 *1061:A1 *1061:B1 0.000478218
7 *170:43 *1061:B1 0.000122202
*RES
1 *1060:X *1061:B1 22.905 
*END

*D_NET *200 0.0178195
*CONN
*I *1062:B1 I *D sky130_fd_sc_hd__a31o_2
*I *1061:Y O *D sky130_fd_sc_hd__a21oi_1
*CAP
1 *1062:B1 0.00474282
2 *1061:Y 0.00474282
3 *1062:B1 *1041:A0 0.000178939
4 *1062:B1 *1054:A 0.000148223
5 *1062:B1 *1056:A1 0.000200165
6 *1062:B1 *1098:A1 0.00113463
7 *1062:B1 *1124:A1 2.45e-05
8 *1062:B1 *235:60 0.00121113
9 *1062:B1 *238:12 2.05571e-05
10 *939:A *1062:B1 4.68109e-05
11 *1004:C1 *1062:B1 0.000169448
12 *1043:B *1062:B1 8.83897e-05
13 *1051:A1 *1062:B1 6.26808e-05
14 *1052:B2 *1062:B1 3.13419e-05
15 *1061:A1 *1062:B1 0.000150716
16 *1061:A2 *1062:B1 0.00054834
17 *1097:A2 *1062:B1 0
18 *1097:B1 *1062:B1 0
19 *1133:A *1062:B1 0.000499398
20 *1183:D *1062:B1 0.0024157
21 *42:14 *1062:B1 1.88602e-05
22 *64:32 *1062:B1 5.1911e-05
23 *83:20 *1062:B1 0.000652271
24 *98:42 *1062:B1 0.000566521
25 *110:78 *1062:B1 1.60922e-05
26 *127:51 *1062:B1 5.725e-05
27 *154:18 *1062:B1 3.99991e-05
*RES
1 *1061:Y *1062:B1 23.8971 
*END

*D_NET *201 0.0250776
*CONN
*I *1070:A2 I *D sky130_fd_sc_hd__a21oi_2
*I *1107:A1 I *D sky130_fd_sc_hd__mux2_1
*I *1075:A2 I *D sky130_fd_sc_hd__a21o_1
*I *1144:A1 I *D sky130_fd_sc_hd__mux2_1
*I *1120:A0 I *D sky130_fd_sc_hd__mux2_1
*I *1063:B I *D sky130_fd_sc_hd__nor2_1
*I *1074:A3 I *D sky130_fd_sc_hd__o31ai_1
*I *1077:B1 I *D sky130_fd_sc_hd__a211o_1
*I *1085:A1 I *D sky130_fd_sc_hd__mux2_1
*I *1062:X O *D sky130_fd_sc_hd__a31o_2
*CAP
1 *1070:A2 0
2 *1107:A1 9.41506e-05
3 *1075:A2 4.94194e-05
4 *1144:A1 0
5 *1120:A0 0.00087656
6 *1063:B 9.02193e-05
7 *1074:A3 0
8 *1077:B1 9.95641e-05
9 *1085:A1 3.32261e-05
10 *1062:X 7.29947e-05
11 *201:100 0.0014642
12 *201:92 0.00110973
13 *201:90 0.000904782
14 *201:80 0.00127654
15 *201:52 0.000402524
16 *201:33 0.000524892
17 *201:16 0.00103971
18 *201:6 0.00190504
19 *1063:B *1074:B1 2.95525e-05
20 *1063:B *230:61 6.07575e-06
21 *1075:A2 *1055:A2 6.72143e-05
22 *1077:B1 *1077:A1 7.59705e-05
23 *1077:B1 *1077:C1 1.6197e-05
24 *1085:A1 *1085:S 4.77757e-05
25 *1085:A1 *258:24 8.73389e-06
26 *1085:A1 *270:30 0.000119866
27 *1107:A1 *1054:A 2.7835e-05
28 *1120:A0 *1124:A1 1.43369e-05
29 *1120:A0 *1144:A0 9.12494e-06
30 *1120:A0 *1161:CLK 0.000567834
31 *1120:A0 *208:81 6.79899e-05
32 *1120:A0 *254:10 1.66925e-05
33 *1120:A0 *266:10 4.8854e-05
34 *201:16 *1072:B 0.000359565
35 *201:16 *1187:A 4.37555e-05
36 *201:16 *270:30 0.00018046
37 *201:33 *1085:S 2.34715e-05
38 *201:33 *258:24 7.48995e-05
39 *201:33 *270:28 0
40 *201:52 *230:86 1.03572e-05
41 *201:52 *234:95 5.83121e-06
42 *201:52 *234:112 2.81489e-05
43 *201:52 *244:12 8.40213e-05
44 *201:80 *957:A 8.78233e-05
45 *201:80 *977:A_N 7.98959e-05
46 *201:80 *1078:B1 0.000226624
47 *201:80 *1098:B1 8.65612e-05
48 *201:80 *206:47 0.000309384
49 *201:80 *263:18 8.34281e-06
50 *201:90 *977:B 0.00011138
51 *201:90 *1054:A 0
52 *201:90 *208:81 0
53 *201:90 *263:18 0.00010409
54 *201:92 *977:B 0.000602764
55 *201:92 *236:194 3.35219e-05
56 *201:100 *1054:A 0.000193129
57 *201:100 *1079:A2 0.000372774
58 *201:100 *1124:A1 1.60922e-05
59 *201:100 *1144:A0 5.96871e-05
60 *201:100 *208:81 0.00041726
61 *201:100 *236:194 0.000249266
62 *201:100 *271:43 0.00112039
63 *953:A1 *1120:A0 4.11718e-05
64 *954:A *1107:A1 0
65 *954:A *201:90 0.000230288
66 *959:A3 *1120:A0 0.0001947
67 *969:A *201:100 0.00134312
68 *982:A *201:80 1.91597e-05
69 *982:B *201:80 0.000623795
70 *985:C1 *201:100 4.46808e-07
71 *1011:A2 *201:52 4.21151e-05
72 *1022:B1 *201:80 1.75583e-05
73 *1027:A *201:33 0.00011178
74 *1031:B *201:80 1.35015e-05
75 *1035:B1 *1063:B 0.000119247
76 *1039:A2 *201:16 2.39856e-05
77 *1039:B1 *201:16 4.89395e-05
78 *1051:S *1120:A0 9.23635e-05
79 *1062:A2 *201:6 4.66108e-05
80 *1062:A3 *201:6 3.96737e-05
81 *1062:A3 *201:16 0.000135464
82 *1063:A *1063:B 3.21081e-06
83 *1132:B *201:100 2.91894e-05
84 *1142:C *1075:A2 6.84448e-05
85 *1145:A *1120:A0 0.00169254
86 *1150:A1 *201:16 4.21973e-05
87 *1150:S *201:16 1.36073e-05
88 *1150:S *201:33 1.10085e-05
89 *1161:D *1120:A0 9.35925e-05
90 *1166:D *201:52 6.89243e-05
91 *1168:D *1063:B 1.56428e-05
92 *1168:D *201:52 0.000330387
93 *37:16 *1120:A0 0.000198442
94 *42:14 *1120:A0 9.37846e-05
95 *49:61 *201:33 3.98656e-05
96 *49:61 *201:52 0.000312558
97 *56:26 *201:80 0.000956243
98 *77:117 *201:80 0.000169927
99 *84:26 *201:80 4.29758e-05
100 *84:32 *201:80 0.00063167
101 *84:83 *201:16 0.000415502
102 *112:30 *201:6 8.40213e-05
103 *119:46 *201:80 2.5424e-05
104 *126:10 *1077:B1 4.41506e-05
105 *171:40 *201:16 0.000188901
106 *174:83 *1077:B1 4.82919e-05
107 *174:112 *1077:B1 1.43191e-05
108 *191:97 *201:16 2.60185e-06
109 *191:124 *201:52 0.000190123
110 *198:24 *201:16 0.000149018
*RES
1 *1062:X *201:6 3.085 
2 *201:6 *201:16 16.215 
3 *201:16 *1085:A1 2.74 
4 *201:16 *201:33 6.7 
5 *201:33 *1077:B1 3.805 
6 *201:33 *201:52 11.62 
7 *201:52 *1074:A3 1.6 
8 *201:52 *1063:B 3.97 
9 *201:6 *201:80 28.15 
10 *201:80 *201:90 9.535 
11 *201:90 *201:92 6.315 
12 *201:92 *201:100 22.925 
13 *201:100 *1120:A0 30.775 
14 *201:100 *1144:A1 3.6 
15 *201:92 *1075:A2 6.47 
16 *201:90 *1107:A1 6.98 
17 *201:80 *1070:A2 1.6 
*END

*D_NET *202 0.00912502
*CONN
*I *1078:A2 I *D sky130_fd_sc_hd__o31ai_2
*I *1071:A I *D sky130_fd_sc_hd__or2b_1
*I *1064:B I *D sky130_fd_sc_hd__nor2_1
*I *1063:Y O *D sky130_fd_sc_hd__nor2_1
*CAP
1 *1078:A2 0.000206936
2 *1071:A 0.000485812
3 *1064:B 0.000193051
4 *1063:Y 7.15836e-05
5 *202:14 0.00103322
6 *202:10 0.000632877
7 *1064:B *237:53 0.000206091
8 *1064:B *252:54 0.000148823
9 *1071:A *1071:B_N 4.98928e-05
10 *1071:A *1173:CLK 1.7394e-05
11 *1071:A *262:12 6.87434e-05
12 *1078:A2 *973:A1 0.000502538
13 *1078:A2 *237:53 0.000118081
14 *1078:A2 *257:14 2.87686e-05
15 *202:14 *237:53 0.000577232
16 *984:A *1078:A2 4.77719e-05
17 *984:B *1078:A2 9.09641e-05
18 *984:B *202:14 8.46767e-05
19 *985:B1 *1071:A 0.000699072
20 *985:C1 *1071:A 0.000859662
21 *1025:A1 *202:10 0.000148204
22 *1078:A1 *1078:A2 0.000247414
23 *1078:A1 *202:14 7.22045e-05
24 *1107:S *202:10 8.7152e-06
25 *1130:A *1071:A 0.000237893
26 *32:60 *202:14 0.000118081
27 *49:61 *202:10 0.000147611
28 *99:43 *202:14 8.23457e-05
29 *116:98 *1071:A 0.000154822
30 *119:46 *1078:A2 2.1553e-05
31 *123:22 *1071:A 2.97032e-05
32 *191:128 *1064:B 0.00066663
33 *191:128 *202:14 0.00106666
*RES
1 *1063:Y *202:10 7.49 
2 *202:10 *202:14 12.195 
3 *202:14 *1064:B 7.915 
4 *202:14 *1071:A 19.475 
5 *202:10 *1078:A2 7.93 
*END

*D_NET *203 0.0203299
*CONN
*I *1065:B I *D sky130_fd_sc_hd__xnor2_1
*I *1064:Y O *D sky130_fd_sc_hd__nor2_1
*CAP
1 *1065:B 0.00294679
2 *1064:Y 0.00294679
3 *1065:B *1079:A2 0.000382499
4 *1065:B *204:28 4.12356e-05
5 *1065:B *216:14 0.00243803
6 *1065:B *216:20 0.00193875
7 *1065:B *252:54 8.23457e-05
8 *981:A3 *1065:B 0.00225152
9 *1052:B2 *1065:B 0.000210598
10 *1065:A *1065:B 0.000206697
11 *1160:D *1065:B 0.00253859
12 *1185:A *1065:B 0.00198035
13 *95:18 *1065:B 3.92756e-05
14 *117:12 *1065:B 0.00185729
15 *161:32 *1065:B 0.000383801
16 *163:18 *1065:B 0
17 *180:43 *1065:B 8.52883e-05
*RES
1 *1064:Y *1065:B 31.4155 
*END

*D_NET *204 0.0190476
*CONN
*I *1067:B I *D sky130_fd_sc_hd__nor2_2
*I *1076:A1 I *D sky130_fd_sc_hd__a31o_1
*I *1066:Y O *D sky130_fd_sc_hd__inv_2
*CAP
1 *1067:B 0.000173091
2 *1076:A1 0.00207558
3 *1066:Y 0.00241565
4 *204:28 0.00466433
5 *1076:A1 *1076:A2 4.28786e-05
6 *1076:A1 *1076:B1 1.14973e-05
7 *1076:A1 *1103:A1 0.000238801
8 *1076:A1 *1136:A 0
9 *1076:A1 *249:33 0
10 *204:28 *1056:A1 9.5799e-06
11 *204:28 *1128:A0 0.00043221
12 *204:28 *1148:A0 0.000103315
13 *204:28 *252:54 0.00119483
14 *970:A *1067:B 0.000245177
15 *972:B1 *204:28 0.000490734
16 *981:A2 *1076:A1 0.00022289
17 *981:A2 *204:28 0.000387833
18 *981:B1 *204:28 6.52282e-05
19 *1000:A2 *1076:A1 4.41506e-05
20 *1019:B *1076:A1 0
21 *1026:A1 *204:28 0.000151364
22 *1040:S *1067:B 0.000191343
23 *1048:B *1067:B 8.23457e-05
24 *1060:A *1076:A1 7.64128e-05
25 *1065:B *204:28 4.12356e-05
26 *1079:B1 *1067:B 0.000243889
27 *1157:D *1067:B 5.85064e-05
28 *1157:D *1076:A1 0.000116216
29 *1160:D *204:28 4.12303e-05
30 *1163:D *1076:A1 0.000246391
31 *1177:D *1076:A1 2.57269e-05
32 *1185:A *204:28 0.000416442
33 *28:24 *1076:A1 8.33066e-06
34 *64:32 *204:28 3.41952e-05
35 *89:22 *204:28 0.00299945
36 *95:18 *1076:A1 2.63393e-05
37 *95:18 *204:28 0.000267212
38 *98:42 *204:28 0.000107452
39 *109:40 *1076:A1 0.00019203
40 *110:78 *204:28 1.7635e-05
41 *120:26 *1076:A1 0.000560669
42 *134:10 *1076:A1 0
43 *139:18 *1076:A1 6.97024e-05
44 *173:32 *1076:A1 0.000152356
45 *178:18 *204:28 0.000103315
*RES
1 *1066:Y *204:28 12.2916 
2 *204:28 *1076:A1 22.4374 
3 *204:28 *1067:B 9.3275 
*END

*D_NET *205 0.0231803
*CONN
*I *1077:C1 I *D sky130_fd_sc_hd__a211o_1
*I *1076:B1 I *D sky130_fd_sc_hd__a31o_1
*I *1068:A I *D sky130_fd_sc_hd__inv_2
*I *1067:Y O *D sky130_fd_sc_hd__nor2_2
*CAP
1 *1077:C1 0.000191297
2 *1076:B1 0.00146268
3 *1068:A 0.00154935
4 *1067:Y 0.00162741
5 *205:24 0.00398166
6 *205:22 0.00278833
7 *1068:A *1092:A 0.00113065
8 *1068:A *1191:A 1.92979e-05
9 *1068:A *252:20 4.2145e-05
10 *1076:B1 *1076:A3 4.94457e-05
11 *1076:B1 *1136:A 0
12 *1076:B1 *1179:CLK 0.000158379
13 *1076:B1 *269:26 0.000555741
14 *1077:C1 *1077:A1 4.77719e-05
15 *205:22 *985:A1 0.000101748
16 *205:22 *1079:A2 0.000276897
17 *205:22 *1080:B 0.000111717
18 *205:22 *210:28 5.8678e-05
19 *205:24 *1086:A 5.30512e-05
20 *987:B1 *1077:C1 0.000255949
21 *987:B1 *205:24 0.000505328
22 *1019:B *1076:B1 0.000337978
23 *1027:A *205:24 0
24 *1028:C1 *205:22 0.000247026
25 *1030:A *205:22 0.000132188
26 *1044:B *1068:A 0.000422349
27 *1052:B2 *1068:A 0.000238532
28 *1059:A *1068:A 0.000165818
29 *1067:A *205:22 0.000774497
30 *1076:A1 *1076:B1 1.14973e-05
31 *1077:B1 *1077:C1 1.6197e-05
32 *1081:A *205:22 0.000159326
33 *1161:D *205:22 0.000367954
34 *1163:D *205:24 5.38133e-05
35 *1164:D *1076:B1 0.00028133
36 *1173:D *205:24 0
37 *1182:D *1068:A 6.98771e-05
38 *60:14 *1076:B1 7.1624e-05
39 *82:66 *1076:B1 0.0010858
40 *96:28 *205:24 0
41 *109:40 *1076:B1 4.77757e-05
42 *126:10 *1077:C1 1.56428e-05
43 *126:22 *205:24 6.60257e-06
44 *129:28 *1077:C1 0.000330182
45 *129:28 *205:24 0.000948677
46 *161:32 *205:22 1.48526e-05
47 *166:26 *1068:A 0.0022702
48 *175:12 *205:22 0.000142993
*RES
1 *1067:Y *205:22 16.6466 
2 *205:22 *205:24 18.3375 
3 *205:24 *1068:A 11.7478 
4 *205:24 *1076:B1 39.58 
5 *205:22 *1077:C1 8.7675 
*END

*D_NET *206 0.0169752
*CONN
*I *1080:A I *D sky130_fd_sc_hd__nand2_1
*I *1078:B1 I *D sky130_fd_sc_hd__o31ai_2
*I *1074:B1 I *D sky130_fd_sc_hd__o31ai_1
*I *1072:A I *D sky130_fd_sc_hd__nand2_1
*I *1068:Y O *D sky130_fd_sc_hd__inv_2
*CAP
1 *1080:A 0.000144677
2 *1078:B1 0.00021769
3 *1074:B1 0.00108631
4 *1072:A 0.000120553
5 *1068:Y 0.000800004
6 *206:47 0.0014476
7 *206:34 0.00172222
8 *206:18 0.00240275
9 *1072:A *935:A 0.000192497
10 *1072:A *1192:A 7.94912e-05
11 *1074:B1 *1146:A0 0.000191335
12 *1074:B1 *230:61 1.08758e-05
13 *1074:B1 *237:53 0.000103647
14 *1078:B1 *957:A 0.000290384
15 *1078:B1 *973:A1 0.000524799
16 *1078:B1 *257:14 0.000416974
17 *206:18 *1191:A 7.18452e-06
18 *206:18 *260:40 0.00115853
19 *206:34 *1004:A1 4.88316e-05
20 *206:34 *1128:A0 0.000920267
21 *206:34 *1192:A 5.85807e-05
22 *206:34 *223:30 8.54412e-05
23 *206:47 *957:A 0.000309384
24 *976:A2 *206:34 0.000500316
25 *976:B1 *206:18 0.000619832
26 *988:C *206:18 0.000114083
27 *989:B_N *206:18 0
28 *1035:A2_N *1074:B1 8.4841e-05
29 *1035:B1 *1074:B1 1.77747e-05
30 *1037:A2 *1080:A 9.97517e-05
31 *1037:B1 *1080:A 2.82864e-05
32 *1037:B1 *206:18 9.12671e-06
33 *1037:B1 *206:34 0.000276676
34 *1044:B *206:18 4.36573e-06
35 *1051:A1 *206:18 5.91496e-05
36 *1052:A1 *1080:A 1.68183e-05
37 *1063:A *1074:B1 3.32394e-05
38 *1063:B *1074:B1 2.95525e-05
39 *1131:A *206:34 0.00014026
40 *1153:A *206:18 6.62365e-05
41 *1167:D *206:18 7.08554e-05
42 *1182:RESET_B *1080:A 1.16578e-05
43 *1182:RESET_B *206:34 0.000489569
44 *50:18 *1072:A 2.61183e-06
45 *77:6 *1072:A 0.00030267
46 *84:130 *206:34 5.30442e-05
47 *89:22 *206:34 0
48 *90:34 *206:34 7.27859e-05
49 *116:60 *1078:B1 1.91597e-05
50 *118:63 *206:34 0.000150616
51 *155:82 *1074:B1 0.000741005
52 *180:43 *1080:A 8.49205e-05
53 *201:80 *1078:B1 0.000226624
54 *201:80 *206:47 0.000309384
*RES
1 *1068:Y *206:18 25.205 
2 *206:18 *206:34 29.845 
3 *206:34 *1072:A 5.17 
4 *206:34 *206:47 5.93 
5 *206:47 *1074:B1 17.985 
6 *206:47 *1078:B1 11.445 
7 *206:18 *1080:A 4.945 
*END

*D_NET *207 0.0209566
*CONN
*I *1070:B1 I *D sky130_fd_sc_hd__a21oi_2
*I *1079:A2 I *D sky130_fd_sc_hd__a211o_1
*I *1069:Y O *D sky130_fd_sc_hd__inv_2
*CAP
1 *1070:B1 6.33106e-05
2 *1079:A2 0.00438548
3 *1069:Y 0.000992045
4 *207:18 0.00544083
5 *1070:B1 *1078:A3 5.93727e-05
6 *1070:B1 *208:8 4.8854e-05
7 *1070:B1 *263:18 4.8854e-05
8 *1079:A2 *1090:A 0
9 *1079:A2 *1132:A 0
10 *1079:A2 *1144:A0 5.83121e-06
11 *1079:A2 *1180:CLK 0.000143737
12 *1079:A2 *233:143 0.00065885
13 *1079:A2 *233:176 0.000167905
14 *207:18 *223:30 0.000628475
15 *954:B_N *1079:A2 0
16 *958:B *207:18 5.0057e-05
17 *963:A_N *1079:A2 0.00012651
18 *981:A1 *1079:A2 0.00071434
19 *985:C1 *1079:A2 8.73147e-06
20 *1008:A2 *1079:A2 0.000102996
21 *1008:B1 *1079:A2 0.000523589
22 *1015:C *1079:A2 0.000159068
23 *1029:B1_N *207:18 3.24046e-05
24 *1056:B1 *207:18 0.00042074
25 *1065:B *1079:A2 0.000382499
26 *1067:A *1079:A2 2.03162e-05
27 *1097:A2 *207:18 9.4053e-06
28 *1132:B *1079:A2 8.12678e-05
29 *1141:A *1079:A2 4.27883e-06
30 *1176:D *207:18 0.000365594
31 *1183:D *1079:A2 7.48593e-05
32 *1183:D *207:18 0.00133977
33 *82:162 *207:18 2.25257e-05
34 *93:12 *1079:A2 0.000597382
35 *93:37 *1079:A2 3.6355e-05
36 *97:22 *207:18 3.68695e-05
37 *106:80 *1079:A2 0.000689049
38 *108:65 *207:18 0.000115417
39 *121:18 *207:18 0.000396383
40 *128:38 *1079:A2 7.98045e-05
41 *128:38 *207:18 0.000879573
42 *146:32 *1079:A2 0.000130895
43 *161:32 *1079:A2 0.000146815
44 *167:38 *207:18 0.000115842
45 *201:100 *1079:A2 0.000372774
46 *205:22 *1079:A2 0.000276897
*RES
1 *1069:Y *207:18 20.5681 
2 *207:18 *1079:A2 48.8954 
3 *207:18 *1070:B1 5.6375 
*END

*D_NET *208 0.0170127
*CONN
*I *1079:C1 I *D sky130_fd_sc_hd__a211o_1
*I *1071:B_N I *D sky130_fd_sc_hd__or2b_1
*I *1078:A3 I *D sky130_fd_sc_hd__o31ai_2
*I *1070:Y O *D sky130_fd_sc_hd__a21oi_2
*CAP
1 *1079:C1 0.00040581
2 *1071:B_N 0.000279922
3 *1078:A3 0.000926423
4 *1070:Y 3.81963e-05
5 *208:81 0.00227254
6 *208:8 0.00255143
7 *1071:B_N *1111:A0 4.66108e-05
8 *1071:B_N *1122:A1 0.00028488
9 *1071:B_N *253:8 0.000356072
10 *1078:A3 *973:A1 4.77757e-05
11 *1078:A3 *1020:A 0.000275044
12 *1078:A3 *1097:A1 3.38392e-06
13 *1078:A3 *1097:B2 2.75307e-06
14 *1078:A3 *1100:B 0.000159014
15 *1078:A3 *1148:A0 0
16 *1078:A3 *1196:A 1.83975e-05
17 *1078:A3 *251:16 7.02539e-05
18 *1078:A3 *257:14 4.66108e-05
19 *1079:C1 *1080:B 2.39856e-05
20 *1079:C1 *1102:A 2.52096e-05
21 *1079:C1 *210:28 0.000763094
22 *208:8 *263:18 2.82797e-05
23 *208:81 *977:B 0.000376831
24 *208:81 *1020:A 0.000112783
25 *208:81 *1054:A 5.8023e-05
26 *208:81 *1075:A1 0.000630904
27 *208:81 *1171:CLK 0.00016925
28 *208:81 *236:194 0.000754734
29 *208:81 *253:8 0.000312872
30 *208:81 *254:10 4.00702e-05
31 *208:81 *267:26 0.000270137
32 *208:81 *271:43 0.00038206
33 *944:B *208:81 2.07103e-05
34 *953:C1 *1078:A3 5.93727e-05
35 *953:C1 *208:81 0.000156758
36 *970:A *1079:C1 1.26626e-05
37 *985:C1 *1071:B_N 0.000333772
38 *985:C1 *208:81 0.000544063
39 *1023:A1 *1079:C1 2.95708e-05
40 *1026:A0 *1079:C1 0.000253061
41 *1028:A1 *1079:C1 0.000226972
42 *1031:B *1078:A3 8.36955e-05
43 *1042:A1 *1078:A3 0.000130328
44 *1054:B *1078:A3 0.000148604
45 *1058:D *1078:A3 0
46 *1070:B1 *1078:A3 5.93727e-05
47 *1070:B1 *208:8 4.8854e-05
48 *1071:A *1071:B_N 4.98928e-05
49 *1073:A *1079:C1 8.92769e-06
50 *1079:A1 *1079:C1 1.27037e-05
51 *1079:B1 *1079:C1 4.06832e-05
52 *1097:B1 *1078:A3 5.062e-06
53 *1120:A0 *208:81 6.79899e-05
54 *1132:B *208:81 0.00121219
55 *1153:A *1078:A3 1.80303e-05
56 *58:28 *208:81 0.000529502
57 *97:22 *1078:A3 3.01712e-05
58 *98:42 *1079:C1 0.00010837
59 *106:57 *1078:A3 3.82018e-05
60 *116:98 *1071:B_N 0.000212457
61 *119:46 *1078:A3 0
62 *120:39 *1071:B_N 4.77757e-05
63 *155:143 *1079:C1 2.49496e-05
64 *167:38 *208:8 0.000160314
65 *174:57 *208:81 3.75203e-05
66 *174:73 *208:81 8.35157e-05
67 *188:16 *1078:A3 6.59891e-05
68 *201:90 *208:81 0
69 *201:100 *208:81 0.00041726
*RES
1 *1070:Y *208:8 5.085 
2 *208:8 *1078:A3 25.4425 
3 *208:8 *208:81 47.86 
4 *208:81 *1071:B_N 12.06 
5 *208:81 *1079:C1 17.86 
*END

*D_NET *209 0.0116477
*CONN
*I *1072:B I *D sky130_fd_sc_hd__nand2_1
*I *1076:A2 I *D sky130_fd_sc_hd__a31o_1
*I *1071:X O *D sky130_fd_sc_hd__or2b_1
*CAP
1 *1072:B 0.00190729
2 *1076:A2 0.000820658
3 *1071:X 0
4 *209:4 0.00272794
5 *1072:B *1111:A0 0.000448605
6 *1072:B *1187:A 2.75889e-05
7 *1072:B *227:67 0.000256233
8 *1072:B *234:16 7.66793e-05
9 *1072:B *236:49 0
10 *1076:A2 *1136:A 2.37828e-05
11 *1076:A2 *250:29 0.000417223
12 *1076:A2 *255:20 0.000284928
13 *970:A *1076:A2 0.000230435
14 *987:A2 *1072:B 0.000217672
15 *1013:A *1076:A2 0.000524399
16 *1017:B *1072:B 0.000110899
17 *1017:B *1076:A2 8.40269e-05
18 *1025:A1 *1072:B 8.59135e-05
19 *1025:A2 *1072:B 1.17846e-05
20 *1026:S *1072:B 0.00054807
21 *1028:B1 *1076:A2 0.000566462
22 *1039:B1 *1072:B 2.84757e-05
23 *1076:A1 *1076:A2 4.28786e-05
24 *1130:C *1076:A2 3.88329e-05
25 *1138:B *1076:A2 2.05056e-05
26 *1139:A *1076:A2 0.000373476
27 *1173:D *1076:A2 0.00015639
28 *77:117 *1072:B 0.000151518
29 *95:73 *1072:B 0.000123499
30 *96:28 *1076:A2 0.000179006
31 *109:40 *1076:A2 0.000194285
32 *120:39 *1072:B 2.14725e-05
33 *145:47 *1072:B 6.59891e-05
34 *145:75 *1072:B 0
35 *152:24 *1076:A2 0.000167218
36 *178:18 *1072:B 7.9642e-06
37 *191:97 *1072:B 0.000217209
38 *198:24 *1072:B 0.000128792
39 *198:28 *1072:B 0
40 *201:16 *1072:B 0.000359565
*RES
1 *1071:X *209:4 1.6 
2 *209:4 *1076:A2 31.35 
3 *209:4 *1072:B 42.645 
*END

*D_NET *210 0.012382
*CONN
*I *1074:A1 I *D sky130_fd_sc_hd__o31ai_1
*I *1075:A1 I *D sky130_fd_sc_hd__a21o_1
*I *1077:A1 I *D sky130_fd_sc_hd__a211o_1
*I *1073:Y O *D sky130_fd_sc_hd__inv_2
*CAP
1 *1074:A1 1.58134e-05
2 *1075:A1 0.00119978
3 *1077:A1 0.00013296
4 *1073:Y 0.00137088
5 *210:49 0.00144516
6 *210:28 0.00173341
7 *1075:A1 *950:B 0.000287386
8 *1075:A1 *1152:A1 0
9 *1075:A1 *1158:CLK 9.387e-06
10 *1075:A1 *234:112 8.15572e-05
11 *210:28 *1041:A0 0.000307096
12 *210:28 *1102:A 1.01276e-05
13 *210:28 *1186:A 5.17981e-05
14 *210:28 *236:39 0.000273753
15 *949:B *1075:A1 1.12156e-05
16 *953:A1 *1075:A1 1.95649e-05
17 *961:A *1075:A1 0.000625367
18 *970:A *210:28 5.8678e-05
19 *987:B1 *1077:A1 5.83121e-06
20 *1023:A1 *210:28 0.000154801
21 *1026:A0 *210:28 0.000207497
22 *1035:B1 *1074:A1 1.56428e-05
23 *1035:B1 *210:49 7.88603e-05
24 *1077:B1 *1077:A1 7.59705e-05
25 *1077:C1 *1077:A1 4.77719e-05
26 *1079:C1 *210:28 0.000763094
27 *1116:A *1077:A1 0.000130352
28 *1116:A *210:49 0.000320818
29 *1161:D *210:28 6.03272e-05
30 *1162:D *1075:A1 0.000310274
31 *1168:D *1074:A1 3.6355e-05
32 *1168:D *210:49 0.000228228
33 *1185:A *210:28 0.000193729
34 *77:49 *1075:A1 3.46972e-05
35 *95:18 *210:28 4.01358e-05
36 *99:43 *1075:A1 0.000349157
37 *110:53 *1075:A1 1.83114e-05
38 *126:10 *1077:A1 6.07575e-06
39 *129:28 *1077:A1 0.000129127
40 *129:28 *210:49 0.000328119
41 *141:14 *1075:A1 0.000117826
42 *154:18 *1075:A1 3.04641e-05
43 *161:32 *210:28 0.000173277
44 *170:43 *1075:A1 0
45 *174:112 *1077:A1 0.000201753
46 *205:22 *210:28 5.8678e-05
47 *208:81 *1075:A1 0.000630904
*RES
1 *1073:Y *210:28 26.3541 
2 *210:28 *1077:A1 7.53 
3 *210:28 *210:49 8.36 
4 *210:49 *1075:A1 27.485 
5 *210:49 *1074:A1 2.05 
*END

*D_NET *211 0.0186515
*CONN
*I *1076:A3 I *D sky130_fd_sc_hd__a31o_1
*I *1075:X O *D sky130_fd_sc_hd__a21o_1
*CAP
1 *1076:A3 0.000589923
2 *1075:X 0.00331383
3 *211:26 0.00390375
4 *1076:A3 *250:29 7.83124e-05
5 *1076:A3 *271:24 1.33205e-05
6 *211:26 *1089:A0 0.000100208
7 *211:26 *1098:A1 0.000367158
8 *211:26 *1099:B 0.000487032
9 *211:26 *229:22 5.83121e-06
10 *211:26 *238:12 5.73174e-05
11 *211:26 *271:24 0.000476575
12 *963:A_N *211:26 5.78114e-05
13 *969:A *211:26 9.89832e-05
14 *998:A *211:26 1.29465e-05
15 *1051:A1 *1076:A3 0.00018569
16 *1051:A1 *211:26 1.98547e-06
17 *1052:B2 *211:26 0.000158435
18 *1061:A2 *211:26 0.000177237
19 *1076:B1 *1076:A3 4.94457e-05
20 *1181:D *1076:A3 7.62584e-05
21 *67:22 *211:26 0.000257355
22 *70:32 *211:26 0.000513988
23 *109:40 *1076:A3 8.65183e-05
24 *146:32 *211:26 8.96743e-05
25 *147:16 *211:26 6.17113e-06
26 *152:24 *1076:A3 0.00104777
27 *152:42 *211:26 0.000298795
28 *158:12 *211:26 0.000929246
29 *168:55 *1076:A3 0.00130656
30 *173:32 *211:26 0.000875692
31 *185:63 *211:26 0.00172447
32 *187:24 *1076:A3 0.00130323
*RES
1 *1075:X *211:26 42.3312 
2 *211:26 *1076:A3 28.365 
*END

*D_NET *212 0.0165013
*CONN
*I *1080:B I *D sky130_fd_sc_hd__nand2_1
*I *1079:X O *D sky130_fd_sc_hd__a211o_1
*CAP
1 *1080:B 0.00416442
2 *1079:X 0.00416442
3 *1080:B *1041:A0 7.81994e-05
4 *1080:B *223:30 8.78301e-05
5 seg[2] *1080:B 2.69713e-05
6 seg[3] *1080:B 0
7 *964:A *1080:B 7.56599e-05
8 *981:A2 *1080:B 7.73271e-05
9 *987:A2 *1080:B 0.00153274
10 *987:B1 *1080:B 0.000670733
11 *988:A *1080:B 9.03208e-05
12 *992:A1 *1080:B 1.32808e-05
13 *992:B1 *1080:B 0.000120335
14 *1023:S *1080:B 0
15 *1028:A1 *1080:B 8.10849e-05
16 *1037:A1 *1080:B 9.50342e-06
17 *1050:A0 *1080:B 5.78448e-05
18 *1050:S *1080:B 1.7635e-05
19 *1051:A1 *1080:B 0
20 *1079:C1 *1080:B 2.39856e-05
21 *1081:A *1080:B 0.000290386
22 *1093:B1 *1080:B 0
23 *1153:A *1080:B 0.000220436
24 *1172:D *1080:B 0.000122202
25 *1177:D *1080:B 0.00131918
26 *1182:D *1080:B 1.57264e-05
27 *1185:A *1080:B 0.000280988
28 *48:38 *1080:B 0.000141311
29 *57:36 *1080:B 1.17267e-05
30 *64:68 *1080:B 0
31 *81:92 *1080:B 0.00099839
32 *82:18 *1080:B 0.000213198
33 *90:34 *1080:B 0.000164375
34 *108:65 *1080:B 3.86814e-05
35 *113:16 *1080:B 6.60178e-06
36 *126:22 *1080:B 0.000239461
37 *128:12 *1080:B 6.98164e-05
38 *129:28 *1080:B 0.000240687
39 *155:143 *1080:B 0.000123692
40 *163:18 *1080:B 0.000600448
41 *205:22 *1080:B 0.000111717
*RES
1 *1079:X *1080:B 45.0656 
*END

*D_NET *213 0.00302162
*CONN
*I *1082:A I *D sky130_fd_sc_hd__clkbuf_1
*I *1081:X O *D sky130_fd_sc_hd__clkbuf_1
*CAP
1 *1082:A 0.000657777
2 *1081:X 0.000657777
3 *1082:A *1103:A1 1.10951e-05
4 *1082:A *1154:A 1.33285e-05
5 *1082:A *238:39 4.77719e-05
6 *1030:A *1082:A 0.000320848
7 *1114:A *1082:A 0.000302118
8 *1124:A0 *1082:A 0.000109854
9 *1177:D *1082:A 8.23457e-05
10 *28:24 *1082:A 0.000599818
11 *174:124 *1082:A 0.000218884
*RES
1 *1081:X *1082:A 21.87 
*END

*D_NET *214 0.000518869
*CONN
*I *1083:B I *D sky130_fd_sc_hd__and2_1
*I *1082:X O *D sky130_fd_sc_hd__clkbuf_1
*CAP
1 *1083:B 0.000152432
2 *1082:X 0.000152432
3 *1016:B1 *1083:B 7.58994e-05
4 *19:16 *1083:B 0.000138106
*RES
1 *1082:X *1083:B 9.975 
*END

*D_NET *215 0.0156701
*CONN
*I *1084:A I *D sky130_fd_sc_hd__buf_2
*I *1083:X O *D sky130_fd_sc_hd__and2_1
*CAP
1 *1084:A 0.00023509
2 *1083:X 0.000805431
3 *215:14 0.00194611
4 *215:12 0.00251645
5 *1084:A *216:14 0
6 *215:12 *1103:A0 1.79536e-05
7 *215:12 *1124:A1 3.33871e-05
8 *215:12 *216:20 0
9 *215:12 *239:22 8.41307e-05
10 *215:12 *239:39 0.000117159
11 *938:A *215:14 0.0017211
12 *978:B *215:14 0.00116155
13 *1016:B1 *215:12 0.000430957
14 *1030:A *215:14 9.28507e-05
15 *1030:B *215:14 0.000469479
16 *1059:A *1084:A 8.03355e-05
17 *1065:A *215:14 0.000147311
18 *1182:D *215:14 0.000368839
19 *28:24 *215:12 0.00103023
20 *42:14 *215:12 0
21 *139:18 *215:12 0.000285891
22 *169:16 *215:14 8.8266e-05
23 *180:63 *215:14 0.00403755
*RES
1 *1083:X *215:12 25.88 
2 *215:12 *215:14 50.475 
3 *215:14 *1084:A 9.275 
*END

*D_NET *216 0.0353317
*CONN
*I *1089:S I *D sky130_fd_sc_hd__mux2_1
*I *1087:S I *D sky130_fd_sc_hd__mux2_1
*I *1085:S I *D sky130_fd_sc_hd__mux2_1
*I *1103:S I *D sky130_fd_sc_hd__mux2_1
*I *1091:S I *D sky130_fd_sc_hd__mux2_1
*I *1084:X O *D sky130_fd_sc_hd__buf_2
*CAP
1 *1089:S 0
2 *1087:S 0.000172145
3 *1085:S 0.00227073
4 *1103:S 0.000448221
5 *1091:S 0
6 *1084:X 0
7 *216:85 0.000759315
8 *216:83 0.00151764
9 *216:79 0.00185459
10 *216:20 0.00228337
11 *216:14 0.00567214
12 *216:4 0.00249037
13 *1085:S *1154:A 3.92756e-05
14 *1085:S *258:24 2.80221e-05
15 *1103:S *1156:A 0.000348011
16 *1103:S *229:22 0
17 *1103:S *271:24 0.000116952
18 *216:14 *1113:A0 0.000346165
19 *216:14 *1167:CLK 0
20 *216:20 *1156:A 5.31158e-06
21 seg[4] *216:79 0
22 seg[5] *216:79 8.11212e-05
23 *981:A3 *216:20 0.000846241
24 *988:B *216:79 1.00941e-05
25 *990:A *1085:S 0.000696832
26 *997:A *216:85 0.000235378
27 *998:A *216:85 0.000151918
28 *1025:A3 *1085:S 0.00015826
29 *1027:A *1085:S 2.0656e-05
30 *1030:B *216:20 0
31 *1044:B *216:79 0.000248761
32 *1052:A2 *216:79 0.000409048
33 *1052:B2 *216:20 0.00078359
34 *1059:A *216:14 0
35 *1065:B *216:14 0.00243803
36 *1065:B *216:20 0.00193875
37 *1084:A *216:14 0
38 *1085:A1 *1085:S 4.77757e-05
39 *1089:A1 *1087:S 0.000309777
40 *1160:D *216:14 0
41 *1161:D *1085:S 4.03791e-05
42 *1165:D *216:83 0.000129637
43 *1180:D *1085:S 0.000463587
44 *30:14 *216:85 0
45 *30:16 *216:83 0.00414835
46 *42:14 *216:20 0.000142364
47 *82:12 *216:79 0
48 *117:12 *216:14 0
49 *127:51 *216:14 0
50 *135:10 *216:83 0
51 *150:48 *216:79 4.28645e-05
52 *150:48 *216:83 0.00308682
53 *154:18 *1085:S 0.000379961
54 *166:26 *216:79 0
55 *168:55 *216:20 0
56 *184:20 *216:79 0.000145799
57 *187:24 *216:20 0
58 *201:33 *1085:S 2.34715e-05
59 *215:12 *216:20 0
*RES
1 *1084:X *216:4 1.6 
2 *216:4 *216:14 17.4106 
3 *216:14 *216:20 17.4021 
4 *216:20 *1091:S 3.6 
5 *216:20 *1103:S 12.3 
6 *216:14 *1085:S 11.1763 
7 *216:4 *216:79 6.44637 
8 *216:79 *216:83 49.4075 
9 *216:83 *216:85 9.765 
10 *216:85 *1087:S 5.155 
11 *216:85 *1089:S 1.6 
*END

*D_NET *217 0.00610039
*CONN
*I *1086:A I *D sky130_fd_sc_hd__clkbuf_1
*I *1085:X O *D sky130_fd_sc_hd__mux2_1
*CAP
1 *1086:A 0.00165095
2 *1085:X 0.00165095
3 *1086:A *1101:A_N 0.000478515
4 *1086:A *255:20 8.49936e-05
5 *987:B1 *1086:A 0.000598201
6 *999:A2 *1086:A 5.63183e-05
7 *1000:B1 *1086:A 5.57503e-05
8 *1034:B1 *1086:A 0.000119242
9 *1116:A *1086:A 0.000498563
10 *1135:A *1086:A 4.36573e-06
11 *1173:D *1086:A 9.83274e-05
12 *124:36 *1086:A 0.000459335
13 *169:16 *1086:A 4.66108e-05
14 *169:35 *1086:A 0.000142854
15 *173:32 *1086:A 0.000102355
16 *205:24 *1086:A 5.30512e-05
*RES
1 *1085:X *1086:A 40.795 
*END

*D_NET *218 0.00960742
*CONN
*I *1088:A I *D sky130_fd_sc_hd__clkbuf_1
*I *1087:X O *D sky130_fd_sc_hd__mux2_1
*CAP
1 *1088:A 0.000100531
2 *1087:X 0.00155175
3 *218:20 0.00165228
4 *1088:A *1003:C 0.000163759
5 *218:20 *1003:C 0.000162402
6 *218:20 *1041:A0 4.77769e-05
7 *218:20 *1087:A0 5.28642e-05
8 *218:20 *1117:D_N 4.66108e-05
9 *946:B *218:20 4.24292e-06
10 *992:B1 *218:20 4.0031e-05
11 *1003:D *218:20 0
12 *1006:A2 *218:20 0.000253821
13 *1018:A *1088:A 0.000391827
14 *1018:A *218:20 0.000152326
15 *1041:A1 *218:20 0.000338787
16 *1054:B *218:20 0.000657393
17 *1059:A *218:20 3.69766e-05
18 *1089:A1 *218:20 8.82207e-05
19 *1118:A *1088:A 2.39146e-05
20 *1118:A *218:20 0.000117765
21 *1147:A *218:20 4.96039e-05
22 *50:18 *218:20 1.56651e-05
23 *77:117 *218:20 0.000164538
24 *82:30 *218:20 0.000148319
25 *88:70 *218:20 0.000950188
26 *118:63 *218:20 0.000117916
27 *174:29 *218:20 0.0010963
28 *180:8 *218:20 4.66108e-05
29 *197:28 *218:20 0.00113501
*RES
1 *1087:X *218:20 47.24 
2 *218:20 *1088:A 5.185 
*END

*D_NET *219 0.018499
*CONN
*I *1090:A I *D sky130_fd_sc_hd__clkbuf_1
*I *1089:X O *D sky130_fd_sc_hd__mux2_1
*CAP
1 *1090:A 0.0050605
2 *1089:X 0.0050605
3 *1090:A *1089:A0 9.12494e-06
4 *1090:A *1091:A0 0
5 *1090:A *1103:A0 0.000141042
6 *1090:A *1124:A1 0.00106677
7 *1090:A *221:43 0.0054635
8 *963:A_N *1090:A 0
9 *981:A3 *1090:A 2.05583e-05
10 *1016:B1 *1090:A 0.000286961
11 *1041:A1 *1090:A 1.58261e-05
12 *1051:A0 *1090:A 0.00012792
13 *1079:A2 *1090:A 0
14 *1089:A1 *1090:A 0
15 *1120:S *1090:A 0.000410184
16 *19:16 *1090:A 2.2142e-05
17 *70:32 *1090:A 0
18 *168:53 *1090:A 0.00081397
*RES
1 *1089:X *1090:A 34.1377 
*END

*D_NET *220 0.0134137
*CONN
*I *1092:A I *D sky130_fd_sc_hd__buf_1
*I *1091:X O *D sky130_fd_sc_hd__mux2_1
*CAP
1 *1092:A 0.00299765
2 *1091:X 0.00299765
3 *1092:A *1122:A1 0.000153816
4 *1092:A *1156:A 2.69217e-05
5 *1092:A *252:20 3.92756e-05
6 *937:A *1092:A 3.75952e-05
7 *1019:A *1092:A 0.000617174
8 *1019:B *1092:A 2.49909e-05
9 *1028:B1 *1092:A 7.48503e-05
10 *1044:B *1092:A 0.00228276
11 *1052:B2 *1092:A 0.000103618
12 *1068:A *1092:A 0.00113065
13 *1124:S *1092:A 0.000302119
14 *1167:D *1092:A 0.00014516
15 *1182:D *1092:A 9.00083e-05
16 *19:16 *1092:A 8.53011e-05
17 *56:26 *1092:A 0.00010385
18 *60:14 *1092:A 0.00150929
19 *82:79 *1092:A 0
20 *116:98 *1092:A 0
21 *126:28 *1092:A 1.28442e-05
22 *151:10 *1092:A 1.51105e-05
23 *157:30 *1092:A 5.52482e-05
24 *187:24 *1092:A 0.000302863
25 *191:34 *1092:A 0.000304972
*RES
1 *1091:X *1092:A 43.1223 
*END

*D_NET *221 0.0308982
*CONN
*I *1101:B I *D sky130_fd_sc_hd__and2b_1
*I *275:DIODE I *D sky130_fd_sc_hd__diode_2
*I *1100:A_N I *D sky130_fd_sc_hd__and2b_1
*I *1093:Y O *D sky130_fd_sc_hd__a21oi_2
*CAP
1 *1101:B 0.000295969
2 *275:DIODE 1.17302e-05
3 *1100:A_N 0.000348396
4 *1093:Y 0.000560583
5 *221:43 0.00657156
6 *221:12 0.00717284
7 *1101:B *1179:CLK 1.00941e-05
8 *221:12 *1196:A 2.21571e-05
9 *221:43 *1091:A0 0.000271718
10 *221:43 *1103:A0 0.000202315
11 *221:43 *1156:A 0.000147915
12 *221:43 *238:12 0.000274713
13 *939:A *1101:B 0
14 *981:A3 *221:43 0.00184187
15 *1001:A *221:43 0.000119309
16 *1011:A1 *1101:B 0.000109106
17 *1011:A1 *221:43 2.66769e-05
18 *1020:B *221:43 0.00100677
19 *1031:B *1100:A_N 7.08493e-05
20 *1052:B2 *221:43 0.00205771
21 *1055:A3 *221:43 0
22 *1056:C1 *221:43 0.00141552
23 *1090:A *221:43 0.0054635
24 *1093:B1 *221:12 5.44027e-05
25 *1094:A1 *1100:A_N 0.000128411
26 *1095:A2 *1100:A_N 1.79536e-05
27 *19:16 *221:43 0.000128214
28 *28:24 *1101:B 1.92979e-05
29 *42:14 *275:DIODE 1.88656e-05
30 *42:14 *221:43 0.000310126
31 *56:26 *1100:A_N 8.40587e-05
32 *56:26 *221:12 0.000266984
33 *65:14 *221:43 0.000165737
34 *70:32 *221:43 0.00010791
35 *84:26 *221:43 0
36 *106:37 *1100:A_N 0.000585873
37 *106:37 *221:12 0.000557035
38 *108:49 *221:12 1.88656e-05
39 *119:46 *1100:A_N 4.05129e-06
40 *178:71 *1100:A_N 0.000123955
41 *196:31 *1100:A_N 0.00030517
*RES
1 *1093:Y *221:12 5.71063 
2 *221:12 *1100:A_N 6.44277 
3 *221:12 *221:43 41.2642 
4 *221:43 *275:DIODE 4.3325 
5 *221:43 *1101:B 4.83663 
*END

*D_NET *222 0.0104759
*CONN
*I *1095:B1 I *D sky130_fd_sc_hd__o21a_1
*I *1094:Y O *D sky130_fd_sc_hd__a21oi_1
*CAP
1 *1095:B1 0.00235576
2 *1094:Y 0.00235576
3 *1095:B1 *1097:B2 9.04081e-05
4 *1095:B1 *223:30 9.5929e-05
5 *949:B *1095:B1 0.000226303
6 *953:A2 *1095:B1 1.7635e-05
7 *953:B1 *1095:B1 0.000192686
8 *953:C1 *1095:B1 9.2618e-05
9 *970:A *1095:B1 8.82357e-05
10 *1021:B1 *1095:B1 0.00120508
11 *1022:B1 *1095:B1 1.58398e-05
12 *1022:B2 *1095:B1 0.00146504
13 *1035:A1_N *1095:B1 0.00041226
14 *1060:A *1095:B1 0.00026415
15 *1137:A *1095:B1 8.52495e-05
16 *1142:A *1095:B1 0.000708026
17 *81:28 *1095:B1 0.000427117
18 *108:49 *1095:B1 0.000164808
19 *120:76 *1095:B1 0.000213027
*RES
1 *1094:Y *1095:B1 26.5401 
*END

*D_NET *223 0.0167538
*CONN
*I *1099:A I *D sky130_fd_sc_hd__xor2_1
*I *1095:X O *D sky130_fd_sc_hd__o21a_1
*CAP
1 *1099:A 0.00154956
2 *1095:X 0.00193209
3 *223:30 0.00348165
4 *1099:A *975:C 6.78535e-05
5 *1099:A *978:A 8.7152e-06
6 *1099:A *227:67 0.000168891
7 *1099:A *231:22 3.23284e-05
8 *1099:A *258:24 0.000105897
9 *223:30 *1176:CLK 0.000148972
10 *223:30 *1193:A 0
11 *976:A2 *1099:A 1.17309e-05
12 *976:A2 *223:30 0.000860362
13 *987:B1 *1099:A 0.0005172
14 *988:B *1099:A 0.000132842
15 *999:A2 *1099:A 0.000813048
16 *1010:A_N *1099:A 0.000194789
17 *1010:B *1099:A 0.000816776
18 *1022:B1 *223:30 0.000217985
19 *1024:B *1099:A 0.00067376
20 *1052:A1 *1099:A 0.000163919
21 *1052:A1 *223:30 7.03569e-05
22 *1056:B1 *223:30 0.000623211
23 *1058:D *223:30 0.000442848
24 *1069:A *223:30 0.000154977
25 *1080:B *223:30 8.78301e-05
26 *1095:A1 *223:30 0.000156754
27 *1095:A2 *223:30 2.01565e-05
28 *1095:B1 *223:30 9.5929e-05
29 *1110:A *1099:A 0.00115454
30 *1178:D *1099:A 6.66283e-05
31 *31:28 *1099:A 0.000104672
32 *57:22 *223:30 2.29406e-05
33 *82:18 *223:30 6.70919e-06
34 *82:154 *223:30 4.41506e-05
35 *89:22 *223:30 0
36 *108:65 *223:30 0.000716507
37 *110:70 *223:30 9.94592e-05
38 *112:18 *223:30 1.91597e-05
39 *124:36 *1099:A 0.000119242
40 *138:32 *1099:A 0.000135464
41 *206:34 *223:30 8.54412e-05
42 *207:18 *223:30 0.000628475
*RES
1 *1095:X *223:30 49.7275 
2 *223:30 *1099:A 45.9575 
*END

*D_NET *224 0.00511591
*CONN
*I *1098:A2 I *D sky130_fd_sc_hd__o21ai_2
*I *1096:X O *D sky130_fd_sc_hd__buf_1
*CAP
1 *1098:A2 0.00139427
2 *1096:X 0.00139427
3 *1098:A2 *1128:A1 0
4 *1098:A2 *1154:A 2.39856e-05
5 an[2] *1098:A2 0
6 *958:B *1098:A2 0
7 *967:A *1098:A2 0.000119145
8 *980:A *1098:A2 0.000202652
9 *1006:A3 *1098:A2 0.000683975
10 *1057:A *1098:A2 0.000894699
11 *1096:A *1098:A2 9.49027e-05
12 *1153:A *1098:A2 0.000124106
13 *128:38 *1098:A2 0
14 *150:60 *1098:A2 0.000183909
15 *185:63 *1098:A2 0
*RES
1 *1096:X *1098:A2 36.765 
*END

*D_NET *225 0.00288709
*CONN
*I *1098:B1 I *D sky130_fd_sc_hd__o21ai_2
*I *1097:X O *D sky130_fd_sc_hd__a221o_1
*CAP
1 *1098:B1 0.000777228
2 *1097:X 0.000777228
3 *1098:B1 *977:A_N 0
4 *1098:B1 *1020:A 0.000136049
5 *1098:B1 *267:26 0.000157401
6 *966:A_N *1098:B1 8.23457e-05
7 *966:B *1098:B1 4.66108e-05
8 *982:A *1098:B1 5.69248e-06
9 *982:B *1098:B1 1.81185e-05
10 *1020:B *1098:B1 2.86691e-05
11 *1022:B1 *1098:B1 0.000621215
12 *1097:A2 *1098:B1 0.000134178
13 *84:26 *1098:B1 1.57902e-05
14 *201:80 *1098:B1 8.65612e-05
*RES
1 *1097:X *1098:B1 21.18 
*END

*D_NET *226 0.019463
*CONN
*I *1099:B I *D sky130_fd_sc_hd__xor2_1
*I *1098:Y O *D sky130_fd_sc_hd__o21ai_2
*CAP
1 *1099:B 0.00444535
2 *1098:Y 0.00444535
3 *1099:B *1087:A0 1.92979e-05
4 *1099:B *1089:A0 0.000529056
5 *1099:B *1098:A1 0.00368923
6 *1099:B *1111:A0 3.59356e-05
7 *992:B1 *1099:B 0.000202519
8 *998:A *1099:B 0.00183246
9 *999:A2 *1099:B 1.79862e-05
10 *1034:A2 *1099:B 9.2714e-05
11 *1056:B1 *1099:B 1.00941e-05
12 *1065:A *1099:B 0.000487152
13 *1135:A *1099:B 8.1658e-06
14 *64:88 *1099:B 0.000501561
15 *85:20 *1099:B 0.000550034
16 *98:42 *1099:B 0.0014111
17 *124:36 *1099:B 1.95987e-05
18 *146:32 *1099:B 0.000334604
19 *163:18 *1099:B 0.000196404
20 *168:49 *1099:B 0.000147354
21 *211:26 *1099:B 0.000487032
*RES
1 *1098:Y *1099:B 25.5151 
*END

*D_NET *227 0.0151784
*CONN
*I *1100:B I *D sky130_fd_sc_hd__and2b_1
*I *1101:A_N I *D sky130_fd_sc_hd__and2b_1
*I *1099:X O *D sky130_fd_sc_hd__xor2_1
*CAP
1 *1100:B 0.00021949
2 *1101:A_N 0.00151874
3 *1099:X 0
4 *227:67 0.00178588
5 *227:4 0.00308513
6 *1100:B *1196:A 9.5799e-06
7 *1100:B *251:16 0
8 *1101:A_N *239:39 0.000899378
9 *1101:A_N *239:50 8.46818e-05
10 *1101:A_N *255:20 8.247e-05
11 *227:67 *1004:A1 0.000164223
12 *227:67 *1126:A1 0.000847986
13 *227:67 *234:91 0.000202617
14 *227:67 *250:64 0.000187988
15 *227:67 *258:24 0.000127044
16 *970:A *1101:A_N 0.000373795
17 *987:A2 *227:67 0.000106472
18 *987:B1 *227:67 0.00051669
19 *999:A2 *227:67 4.45086e-05
20 *1006:A1 *227:67 0.000113174
21 *1009:A1 *227:67 1.83975e-05
22 *1010:B *227:67 0.000301749
23 *1034:A2 *1101:A_N 7.3553e-05
24 *1035:A2_N *227:67 4.29642e-05
25 *1039:B1 *227:67 2.31673e-05
26 *1056:A2 *227:67 6.61627e-05
27 *1072:B *227:67 0.000256233
28 *1078:A3 *1100:B 0.000159014
29 *1086:A *1101:A_N 0.000478515
30 *1094:A2 *1100:B 1.88656e-05
31 *1099:A *227:67 0.000168891
32 *1136:B *1101:A_N 0.000374529
33 *1158:D *227:67 7.90275e-05
34 *1166:D *1101:A_N 0.000559723
35 *1174:D *1101:A_N 1.79165e-05
36 *31:28 *227:67 0.000125813
37 *64:88 *1101:A_N 5.13616e-06
38 *81:92 *227:67 0.000530335
39 *90:34 *227:67 0.000152762
40 *90:84 *227:67 0
41 *95:73 *227:67 0.000151673
42 *116:60 *1100:B 1.88602e-05
43 *124:36 *1101:A_N 8.35068e-05
44 *145:47 *227:67 5.1985e-06
45 *155:82 *1100:B 8.73147e-06
46 *155:82 *227:67 6.76938e-05
47 *169:16 *1101:A_N 0.000737131
48 *173:32 *1101:A_N 5.15869e-05
49 *178:18 *227:67 1.30972e-05
50 *178:71 *1100:B 0.000161842
51 *178:71 *227:67 5.6451e-05
*RES
1 *1099:X *227:4 1.6 
2 *227:4 *1101:A_N 38.225 
3 *227:4 *227:67 46.39 
4 *227:67 *1100:B 7.785 
*END

*D_NET *228 0.0100946
*CONN
*I *1102:A I *D sky130_fd_sc_hd__nor2_1
*I *1100:X O *D sky130_fd_sc_hd__and2b_1
*CAP
1 *1102:A 0.00229232
2 *1100:X 0.00229232
3 *1102:A *950:B 0.000107452
4 *1102:A *1128:A0 5.08586e-05
5 *1102:A *1193:A 0.000618581
6 *1102:A *229:22 8.64421e-05
7 *1102:A *230:61 4.11718e-05
8 *1102:A *236:33 0.000330732
9 *1102:A *251:16 0.000225285
10 *981:B1 *1102:A 0.000188425
11 *1023:A1 *1102:A 3.16707e-06
12 *1030:A *1102:A 2.17874e-05
13 *1032:A2 *1102:A 2.93517e-05
14 *1035:B2 *1102:A 0.000285435
15 *1039:B1 *1102:A 0.000141655
16 *1041:A1 *1102:A 0.00142498
17 *1048:A *1102:A 0.000213632
18 *1079:B1 *1102:A 0.00013036
19 *1079:C1 *1102:A 2.52096e-05
20 *1160:D *1102:A 0.000118185
21 *1180:D *1102:A 0.000418057
22 *37:16 *1102:A 0.000159156
23 *77:43 *1102:A 5.02814e-06
24 *145:75 *1102:A 0.000141929
25 *146:32 *1102:A 0.000178185
26 *155:63 *1102:A 0.000178013
27 *161:32 *1102:A 0.000376807
28 *210:28 *1102:A 1.01276e-05
*RES
1 *1100:X *1102:A 26.4167 
*END

*D_NET *229 0.00790938
*CONN
*I *1102:B I *D sky130_fd_sc_hd__nor2_1
*I *1101:X O *D sky130_fd_sc_hd__and2b_1
*CAP
1 *1102:B 0
2 *1101:X 0.00214536
3 *229:22 0.00214536
4 *229:22 *1103:A1 5.56041e-05
5 *229:22 *230:61 1.14169e-05
6 *229:22 *239:39 0.000112857
7 *229:22 *271:24 0
8 *1023:S *229:22 0.000163612
9 *1102:A *229:22 8.64421e-05
10 *1103:S *229:22 0
11 *1120:S *229:22 0.000500045
12 *1159:D *229:22 8.35068e-05
13 *37:16 *229:22 9.66475e-05
14 *70:32 *229:22 0.000155389
15 *158:12 *229:22 0.00161274
16 *173:32 *229:22 0.00064053
17 *187:24 *229:22 9.40524e-05
18 *211:26 *229:22 5.83121e-06
*RES
1 *1101:X *229:22 48.89 
2 *229:22 *1102:B 1.6 
*END

*D_NET *230 0.0218491
*CONN
*I *1115:A1 I *D sky130_fd_sc_hd__mux2_1
*I *1152:A1 I *D sky130_fd_sc_hd__mux2_1
*I *1128:A0 I *D sky130_fd_sc_hd__mux2_1
*I *1103:A1 I *D sky130_fd_sc_hd__mux2_1
*I *1102:Y O *D sky130_fd_sc_hd__nor2_1
*CAP
1 *1115:A1 0
2 *1152:A1 0.000525546
3 *1128:A0 0.00151574
4 *1103:A1 0.00172523
5 *1102:Y 0
6 *230:86 0.000646413
7 *230:61 0.0031769
8 *230:4 0.00326553
9 *1103:A1 *1103:A0 2.49909e-05
10 *1103:A1 *1154:A 0.000162931
11 *1103:A1 *233:77 0.000119762
12 *1128:A0 *1192:A 0.000809765
13 *1128:A0 *1193:A 0.00062914
14 *1152:A1 *1115:A0 0.000520043
15 *230:61 *950:B 7.56599e-05
16 *230:61 *1140:A 1.26595e-05
17 *230:61 *1168:CLK 2.20984e-05
18 *230:61 *236:39 0
19 *230:61 *252:54 0.000338373
20 *230:61 *253:8 0.000274109
21 *230:86 *1193:A 1.88602e-05
22 *949:B *1152:A1 5.02814e-06
23 *956:A *1103:A1 0.000333591
24 *970:A *1103:A1 0.000154609
25 *972:B1 *1128:A0 0.000154996
26 *981:B1 *1128:A0 0.000217966
27 *984:B *1152:A1 4.36573e-06
28 *987:A1 *230:61 0.000309458
29 *995:A *1103:A1 5.92535e-05
30 *1009:B1 *1128:A0 7.33639e-05
31 *1023:S *1103:A1 0.000222515
32 *1028:C1 *230:61 0.000225285
33 *1030:A *1103:A1 9.99092e-05
34 *1033:B *230:61 4.77757e-05
35 *1034:A2 *1103:A1 1.40231e-05
36 *1035:B1 *230:61 0.000299701
37 *1062:A2 *1128:A0 0.000343696
38 *1063:B *230:61 6.07575e-06
39 *1074:B1 *230:61 1.08758e-05
40 *1075:A1 *1152:A1 0
41 *1076:A1 *1103:A1 0.000238801
42 *1082:A *1103:A1 1.10951e-05
43 *1102:A *1128:A0 5.08586e-05
44 *1102:A *230:61 4.11718e-05
45 *1107:S *1152:A1 2.82968e-05
46 *1120:S *1103:A1 0.000147686
47 *1124:A0 *1103:A1 3.86814e-05
48 *1131:A *1128:A0 0.000121643
49 *1132:B *230:61 6.72196e-05
50 *1140:B *230:61 4.66474e-05
51 *1144:S *1152:A1 1.77945e-05
52 *1168:D *1128:A0 5.79855e-05
53 *1168:D *230:61 0.000576166
54 *1168:D *230:86 1.93416e-05
55 *1177:D *1103:A1 0.000209935
56 *32:60 *230:61 0
57 *37:16 *230:61 0.000111807
58 *49:61 *1128:A0 5.63183e-05
59 *49:61 *230:86 0.000207939
60 *71:43 *1152:A1 2.10214e-05
61 *71:47 *1152:A1 1.10213e-05
62 *77:49 *1152:A1 0.000147556
63 *84:38 *1128:A0 0.000342351
64 *89:22 *1128:A0 6.77973e-05
65 *109:40 *1103:A1 1.84465e-05
66 *119:46 *1128:A0 0.000212511
67 *145:75 *1128:A0 0.000145947
68 *146:32 *1128:A0 0.00018461
69 *155:63 *1128:A0 0.000162853
70 *174:73 *1152:A1 4.94758e-05
71 *174:112 *230:61 0.000134118
72 *174:124 *1103:A1 0.000165736
73 *178:71 *1128:A0 0.000169831
74 *191:124 *1152:A1 4.78726e-05
75 *191:124 *230:86 4.25139e-05
76 *201:52 *230:86 1.03572e-05
77 *204:28 *1128:A0 0.00043221
78 *206:34 *1128:A0 0.000920267
79 *229:22 *1103:A1 5.56041e-05
80 *229:22 *230:61 1.14169e-05
*RES
1 *1102:Y *230:4 1.6 
2 *230:4 *1103:A1 19.6655 
3 *230:4 *230:61 31.8 
4 *230:61 *1128:A0 22.615 
5 *230:61 *230:86 2.655 
6 *230:86 *1152:A1 13.215 
7 *230:86 *1115:A1 3.6 
*END

*D_NET *231 0.010146
*CONN
*I *1104:A I *D sky130_fd_sc_hd__buf_1
*I *1103:X O *D sky130_fd_sc_hd__mux2_1
*CAP
1 *1104:A 0.000267728
2 *1103:X 0.00277391
3 *231:22 0.00304164
4 *1104:A *234:16 0.000335487
5 *1104:A *234:65 8.88945e-05
6 *231:22 *1170:CLK 7.30937e-05
7 *231:22 *233:77 0.000174701
8 *231:22 *234:16 0
9 *992:B1 *231:22 3.68999e-05
10 *999:A2 *231:22 0.000270732
11 *1024:B *231:22 0.000193113
12 *1037:B1 *1104:A 7.14892e-06
13 *1099:A *231:22 3.23284e-05
14 *1110:A *231:22 0.000557657
15 *1118:A *1104:A 0
16 *1172:D *231:22 0.000165528
17 *1174:D *231:22 3.37735e-05
18 *49:61 *231:22 4.41506e-05
19 *84:83 *231:22 0.000549894
20 *130:10 *231:22 0.000850564
21 *138:32 *231:22 0.0006488
*RES
1 *1103:X *231:22 47.95 
2 *231:22 *1104:A 8.58 
*END

*D_NET *232 0.0035404
*CONN
*I *1187:A I *D sky130_fd_sc_hd__clkbuf_16
*I *1186:A I *D sky130_fd_sc_hd__clkbuf_16
*I *1185:X O *D sky130_fd_sc_hd__clkbuf_16
*CAP
1 *1187:A 0.000370803
2 *1186:A 0.000674949
3 *1185:X 0
4 *232:4 0.00104575
5 *1186:A *236:39 6.06877e-05
6 *1187:A *972:A1 1.08758e-05
7 *1187:A *1009:A2 0.000224128
8 *1187:A *236:39 6.83068e-05
9 *1187:A *244:12 0.000111547
10 *1039:B1 *1187:A 5.32989e-05
11 *1056:A2 *1187:A 0.000128547
12 *1072:B *1187:A 2.75889e-05
13 *1185:A *1186:A 0.00029774
14 *31:28 *1186:A 0.000121817
15 *145:75 *1187:A 1.75055e-05
16 *178:18 *1187:A 4.82919e-05
17 *191:97 *1187:A 5.58462e-05
18 *191:124 *1186:A 0.000121331
19 *191:124 *1187:A 5.83121e-06
20 *201:16 *1187:A 4.37555e-05
21 *210:28 *1186:A 5.17981e-05
*RES
1 *1185:X *232:4 1.6 
2 *232:4 *1186:A 10 
3 *232:4 *1187:A 13.04 
*END

*D_NET *233 0.0301153
*CONN
*I *1168:CLK I *D sky130_fd_sc_hd__dfxtp_1
*I *1157:CLK I *D sky130_fd_sc_hd__dfxtp_1
*I *1180:CLK I *D sky130_fd_sc_hd__dfxtp_1
*I *1161:CLK I *D sky130_fd_sc_hd__dfxtp_1
*I *1171:CLK I *D sky130_fd_sc_hd__dfxtp_1
*I *1169:CLK I *D sky130_fd_sc_hd__dfxtp_1
*I *1184:CLK I *D sky130_fd_sc_hd__dfrtp_1
*I *1160:CLK I *D sky130_fd_sc_hd__dfxtp_1
*I *1183:CLK I *D sky130_fd_sc_hd__dfrtp_4
*I *1163:CLK I *D sky130_fd_sc_hd__dfxtp_1
*I *1175:CLK I *D sky130_fd_sc_hd__dfxtp_1
*I *1170:CLK I *D sky130_fd_sc_hd__dfxtp_1
*I *1174:CLK I *D sky130_fd_sc_hd__dfxtp_1
*I *1181:CLK I *D sky130_fd_sc_hd__dfxtp_1
*I *1179:CLK I *D sky130_fd_sc_hd__dfxtp_1
*I *1173:CLK I *D sky130_fd_sc_hd__dfxtp_1
*I *1186:X O *D sky130_fd_sc_hd__clkbuf_16
*CAP
1 *1168:CLK 0.00020279
2 *1157:CLK 0
3 *1180:CLK 0.000397382
4 *1161:CLK 0.000200675
5 *1171:CLK 0.000110289
6 *1169:CLK 0.000255117
7 *1184:CLK 0
8 *1160:CLK 3.77548e-05
9 *1183:CLK 0.000569779
10 *1163:CLK 0
11 *1175:CLK 0
12 *1170:CLK 0.000604533
13 *1174:CLK 0
14 *1181:CLK 0
15 *1179:CLK 0.000651302
16 *1173:CLK 0.000433044
17 *1186:X 0
18 *233:176 0.00069309
19 *233:154 0.000396311
20 *233:147 0.000354758
21 *233:143 0.000790075
22 *233:137 0.000563664
23 *233:133 0.000487397
24 *233:77 0.00084848
25 *233:53 0.000735409
26 *233:51 0.000434502
27 *233:47 0.000525072
28 *233:41 0.000741669
29 *233:27 0.00122924
30 *233:23 0.000887024
31 *233:19 0.000633013
32 *233:6 0.000461069
33 *1168:CLK *252:54 0.000583605
34 *1173:CLK *985:B2 5.8322e-05
35 *1179:CLK *1124:A1 5.49832e-05
36 *1183:CLK *252:54 7.39166e-05
37 *233:23 *236:12 1.1392e-05
38 *233:23 *236:33 2.51519e-05
39 *233:27 *236:12 6.32798e-05
40 *233:27 *255:83 1.01356e-05
41 *233:41 *1041:A0 4.40094e-05
42 *233:41 *265:16 7.1189e-06
43 *233:47 *238:39 1.79536e-05
44 *233:51 *1124:A1 8.19574e-05
45 *233:53 *1124:A1 0.000104257
46 *233:77 *249:8 0.000159156
47 *233:137 *252:54 0.00033606
48 *233:137 *255:83 4.19615e-05
49 *233:147 *237:18 6.02811e-05
50 *272:DIODE *1170:CLK 0.000119247
51 *938:A *1170:CLK 0.000261537
52 *959:A3 *1173:CLK 2.62779e-05
53 *963:A_N *1180:CLK 0.000503057
54 *963:B *1180:CLK 9.57611e-05
55 *964:A *1180:CLK 0
56 *964:A *233:143 0
57 *964:A *233:176 0
58 *985:B1 *1173:CLK 0.000396151
59 *985:B1 *233:19 7.00115e-05
60 *985:B1 *233:133 0.000208453
61 *985:C1 *1171:CLK 5.21752e-05
62 *994:A *1169:CLK 0.000195973
63 *994:A *233:147 0.000229049
64 *994:A *233:154 4.98756e-05
65 *1016:A1 *1170:CLK 0.000925068
66 *1019:B *1179:CLK 0.0003428
67 *1019:B *233:51 0.000298447
68 *1019:B *233:53 0.000220589
69 *1022:B2 *233:147 0.0001249
70 *1022:B2 *233:176 5.96623e-06
71 *1035:B1 *1168:CLK 0.000351464
72 *1035:B1 *1173:CLK 0.000172161
73 *1035:B1 *233:19 6.05081e-05
74 *1035:B1 *233:133 0.000200489
75 *1035:B1 *233:137 2.49909e-05
76 *1039:A1 *1173:CLK 4.66108e-05
77 *1040:S *233:137 0.000165732
78 *1040:S *233:143 8.41384e-05
79 *1071:A *1173:CLK 1.7394e-05
80 *1076:B1 *1179:CLK 0.000158379
81 *1079:A2 *1180:CLK 0.000143737
82 *1079:A2 *233:143 0.00065885
83 *1079:A2 *233:176 0.000167905
84 *1101:B *1179:CLK 1.00941e-05
85 *1103:A1 *233:77 0.000119762
86 *1116:A *233:47 8.35068e-05
87 *1120:A0 *1161:CLK 0.000567834
88 *1130:A *1173:CLK 0.000111607
89 *1139:A *1170:CLK 0.00012849
90 *1141:A *233:23 0.000518188
91 *1141:A *233:143 0.000250708
92 *1142:A *1180:CLK 0.000101506
93 *1157:D *1183:CLK 0.000197683
94 *1157:D *233:41 0.000390237
95 *1157:D *233:47 0.000503146
96 *1157:D *233:137 0.000108401
97 *1157:D *233:143 4.02438e-05
98 *1160:D *233:27 4.82319e-06
99 *1161:D *1161:CLK 0.000197633
100 *1161:D *1183:CLK 9.53667e-05
101 *1163:D *233:47 0
102 *1168:D *1168:CLK 0.000108379
103 *1169:D *1169:CLK 0.000200648
104 *1170:D *1170:CLK 0.000109329
105 *1174:D *233:77 7.7152e-05
106 *1175:D *233:47 0.000523527
107 *1181:D *1179:CLK 8.53113e-06
108 *1181:D *233:53 3.16237e-05
109 *1183:D *1183:CLK 0.000213017
110 *1183:RESET_B *1183:CLK 0.000199759
111 *1183:RESET_B *233:41 0.000310276
112 *1183:RESET_B *233:47 0.000108629
113 *1184:RESET_B *233:147 4.70477e-05
114 *28:24 *1179:CLK 0.000190904
115 *42:14 *1179:CLK 1.43717e-05
116 *53:16 *1170:CLK 0.000308391
117 *58:28 *1180:CLK 0.000238487
118 *84:89 *1170:CLK 5.3937e-05
119 *95:18 *233:41 4.68464e-05
120 *106:80 *1180:CLK 5.65557e-05
121 *109:40 *233:51 0.000136685
122 *116:98 *1173:CLK 0.000192493
123 *130:10 *1170:CLK 8.53224e-05
124 *134:10 *233:47 0.000208051
125 *138:32 *1170:CLK 0.000194449
126 *138:32 *233:77 0.000379079
127 *171:40 *1173:CLK 8.51649e-05
128 *173:32 *233:47 0.000446813
129 *174:112 *1173:CLK 0.000316765
130 *208:81 *1171:CLK 0.00016925
131 *230:61 *1168:CLK 2.20984e-05
132 *231:22 *1170:CLK 7.30937e-05
133 *231:22 *233:77 0.000174701
*RES
1 *1186:X *233:6 3.6 
2 *233:6 *1173:CLK 14.58 
3 *233:6 *233:19 0.87 
4 *233:19 *233:23 8.315 
5 *233:23 *233:27 5.555 
6 *233:27 *233:41 6.14453 
7 *233:41 *233:47 13.85 
8 *233:47 *233:51 5.675 
9 *233:51 *233:53 2.655 
10 *233:53 *1179:CLK 16.8 
11 *233:53 *1181:CLK 3.6 
12 *233:51 *233:77 9.02 
13 *233:77 *1174:CLK 1.6 
14 *233:77 *1170:CLK 22.175 
15 *233:47 *1175:CLK 1.6 
16 *233:41 *1163:CLK 3.6 
17 *233:27 *1183:CLK 14.955 
18 *233:23 *1160:CLK 2.215 
19 *233:19 *233:133 4.655 
20 *233:133 *233:137 5.295 
21 *233:137 *233:143 11.06 
22 *233:143 *233:147 8.315 
23 *233:147 *1184:CLK 1.6 
24 *233:147 *233:154 0.795 
25 *233:154 *1169:CLK 6.895 
26 *233:154 *1171:CLK 7.745 
27 *233:143 *233:176 2.145 
28 *233:176 *1161:CLK 8.88 
29 *233:176 *1180:CLK 13.65 
30 *233:137 *1157:CLK 1.6 
31 *233:133 *1168:CLK 8.605 
*END

*D_NET *234 0.0259804
*CONN
*I *1165:CLK I *D sky130_fd_sc_hd__dfxtp_1
*I *1176:CLK I *D sky130_fd_sc_hd__dfxtp_1
*I *1178:CLK I *D sky130_fd_sc_hd__dfxtp_1
*I *1188:A I *D sky130_fd_sc_hd__bufinv_16
*I *1158:CLK I *D sky130_fd_sc_hd__dfxtp_1
*I *1159:CLK I *D sky130_fd_sc_hd__dfxtp_1
*I *1162:CLK I *D sky130_fd_sc_hd__dfxtp_1
*I *1166:CLK I *D sky130_fd_sc_hd__dfxtp_1
*I *1182:CLK I *D sky130_fd_sc_hd__dfrtp_2
*I *1177:CLK I *D sky130_fd_sc_hd__dfxtp_1
*I *1167:CLK I *D sky130_fd_sc_hd__dfxtp_1
*I *1164:CLK I *D sky130_fd_sc_hd__dfxtp_1
*I *1172:CLK I *D sky130_fd_sc_hd__dfxtp_1
*I *1187:X O *D sky130_fd_sc_hd__clkbuf_16
*CAP
1 *1165:CLK 0.000156139
2 *1176:CLK 0.000204653
3 *1178:CLK 2.50392e-05
4 *1188:A 0
5 *1158:CLK 0.000422296
6 *1159:CLK 0
7 *1162:CLK 0
8 *1166:CLK 0
9 *1182:CLK 1.33573e-05
10 *1177:CLK 0.000329594
11 *1167:CLK 0.000351041
12 *1164:CLK 0.000326142
13 *1172:CLK 5.63477e-05
14 *1187:X 2.20584e-05
15 *234:163 0.00123559
16 *234:148 0.00104845
17 *234:121 0.000542581
18 *234:112 0.000750345
19 *234:95 0.000896781
20 *234:93 0.000274526
21 *234:91 0.000359172
22 *234:65 0.000703449
23 *234:31 0.000867956
24 *234:18 0.000681042
25 *234:16 0.00138769
26 *234:8 0.000818086
27 *1164:CLK *955:B 0.000114098
28 *1164:CLK *1113:A0 0.000255491
29 *1164:CLK *259:14 2.62526e-05
30 *1165:CLK *972:A1 0
31 *1167:CLK *940:A 0.000260572
32 *1167:CLK *955:B 2.39856e-05
33 *1167:CLK *1113:A0 0.000747012
34 *1167:CLK *239:76 0
35 *234:16 *1041:A0 7.98262e-05
36 *234:18 *236:100 0.000267054
37 *234:31 *236:100 0.000155719
38 *234:91 *972:A1 0.000523638
39 *234:93 *972:A1 4.77719e-05
40 *234:95 *972:A1 4.89295e-05
41 *234:95 *244:12 0.00014676
42 *234:148 *972:A1 3.97064e-05
43 *234:163 *972:A1 5.57958e-05
44 *234:163 *972:B2 3.3485e-05
45 *936:A *1177:CLK 0.000188559
46 *952:D *1158:CLK 4.66108e-05
47 *961:A *1158:CLK 0.000665837
48 *972:A2 *234:163 3.43539e-05
49 *972:B1 *234:163 4.66108e-05
50 *972:C1 *234:163 0.00033764
51 *973:B1 *1165:CLK 4.66108e-05
52 *973:B1 *1176:CLK 0.000231717
53 *973:B1 *234:163 4.77719e-05
54 *987:B1 *234:65 5.05774e-06
55 *990:B *1158:CLK 0.000489977
56 *990:B *234:121 7.9642e-06
57 *1005:C *1176:CLK 8.52137e-06
58 *1009:A1 *1178:CLK 4.60123e-05
59 *1009:A1 *234:163 1.68781e-05
60 *1010:B *234:148 0.000108674
61 *1015:A *1158:CLK 2.10841e-05
62 *1018:A *234:16 4.7878e-05
63 *1027:A *234:112 0.000145093
64 *1035:A1_N *234:112 8.72134e-05
65 *1035:A2_N *234:163 0.000380589
66 *1037:B1 *1177:CLK 0.000339631
67 *1039:B1 *234:148 5.69898e-06
68 *1052:A2 *234:31 5.02126e-06
69 *1052:A3 *234:31 4.04634e-05
70 *1056:A2 *234:91 7.20899e-05
71 *1056:A2 *234:93 3.75126e-05
72 *1056:A2 *234:95 0.000228228
73 *1066:A *234:163 0.000439695
74 *1072:B *234:16 7.66793e-05
75 *1075:A1 *1158:CLK 9.387e-06
76 *1075:A1 *234:112 8.15572e-05
77 *1093:B1 *234:18 7.91885e-05
78 *1104:A *234:16 0.000335487
79 *1104:A *234:65 8.88945e-05
80 *1117:C *234:16 0
81 *1118:A *234:18 0
82 *1118:A *234:65 3.57339e-05
83 *1126:A0 *1177:CLK 9.58678e-06
84 *1131:A *234:16 0.000167932
85 *1133:A *1177:CLK 5.63183e-05
86 *1133:A *234:65 0.000340773
87 *1161:D *234:16 0.000165886
88 *1162:D *234:112 3.34884e-05
89 *1164:D *1164:CLK 0.000109559
90 *1166:D *234:95 7.112e-05
91 *1171:D *234:112 0.000180498
92 *1172:D *234:16 0
93 *1172:D *234:18 0
94 *1177:D *1177:CLK 1.43717e-05
95 *1178:D *1177:CLK 0
96 *1178:D *234:163 0.000496082
97 *1182:D *1182:CLK 2.01504e-05
98 *1182:D *234:65 0.000427137
99 *31:28 *234:95 4.66742e-05
100 *32:60 *234:18 0.000125719
101 *48:38 *234:18 0.000125706
102 *56:26 *1177:CLK 0.000147019
103 *57:22 *1176:CLK 0
104 *71:20 *234:95 0.000173434
105 *77:43 *234:148 0.000115879
106 *77:43 *234:163 4.90071e-05
107 *77:117 *234:91 4.68642e-05
108 *78:16 *1177:CLK 0.00031956
109 *81:92 *234:16 0.000158002
110 *82:66 *1164:CLK 6.08463e-05
111 *83:30 *234:148 7.5714e-05
112 *83:94 *234:163 0.000157282
113 *84:46 *234:8 8.7152e-06
114 *84:46 *234:16 0
115 *90:34 *234:91 3.45952e-05
116 *90:42 *1178:CLK 8.35106e-05
117 *90:42 *234:163 0.000119866
118 *95:73 *234:163 9.7523e-05
119 *96:28 *234:18 6.59891e-05
120 *99:43 *1158:CLK 8.7152e-06
121 *99:43 *234:112 0.000639238
122 *99:43 *234:121 0.000168801
123 *104:10 *1158:CLK 6.41634e-05
124 *108:65 *1176:CLK 4.71711e-05
125 *110:78 *234:163 0.000158543
126 *118:24 *1172:CLK 2.87282e-05
127 *118:24 *234:18 2.85164e-05
128 *118:24 *234:31 1.23015e-05
129 *129:28 *234:121 2.7493e-05
130 *145:47 *1182:CLK 4.66108e-05
131 *145:47 *234:65 1.53053e-05
132 *146:32 *234:148 0.000211854
133 *146:32 *234:163 4.10429e-05
134 *149:30 *234:31 4.53114e-05
135 *170:43 *1158:CLK 7.10274e-05
136 *174:83 *234:112 0.000107035
137 *174:112 *234:112 1.14169e-05
138 *191:16 *234:31 0.00015354
139 *191:97 *234:8 3.69766e-05
140 *191:97 *234:16 9.68083e-06
141 *191:97 *234:91 0.00013534
142 *198:24 *1164:CLK 0.000168685
143 *198:24 *234:16 0
144 *198:24 *234:31 0
145 *198:28 *234:8 1.37527e-05
146 *198:28 *234:91 5.441e-05
147 *201:52 *234:95 5.83121e-06
148 *201:52 *234:112 2.81489e-05
149 *216:14 *1167:CLK 0
150 *223:30 *1176:CLK 0.000148972
151 *227:67 *234:91 0.000202617
152 *231:22 *234:16 0
*RES
1 *1187:X *234:8 4.0875 
2 *234:8 *234:16 10.9386 
3 *234:16 *234:18 7.5 
4 *234:18 *1172:CLK 4.395 
5 *234:18 *234:31 6.185 
6 *234:31 *1164:CLK 9.415 
7 *234:31 *1167:CLK 14.75 
8 *234:16 *234:65 9.71 
9 *234:65 *1177:CLK 14.15 
10 *234:65 *1182:CLK 2.05 
11 *234:8 *234:91 8.4425 
12 *234:91 *234:93 0.45 
13 *234:93 *234:95 6.315 
14 *234:95 *1166:CLK 1.6 
15 *234:95 *234:112 14.795 
16 *234:112 *1162:CLK 3.6 
17 *234:112 *234:121 2.145 
18 *234:121 *1159:CLK 3.6 
19 *234:121 *1158:CLK 14.04 
20 *234:93 *1188:A 1.6 
21 *234:91 *234:148 5.93 
22 *234:148 *1178:CLK 4.395 
23 *234:148 *234:163 20.66 
24 *234:163 *1176:CLK 10.085 
25 *234:163 *1165:CLK 3.79 
*END

*D_NET *235 0.0253226
*CONN
*I *941:A I *D sky130_fd_sc_hd__clkbuf_4
*I *950:B I *D sky130_fd_sc_hd__nor3b_2
*I *1003:B I *D sky130_fd_sc_hd__and4b_1
*I *975:B I *D sky130_fd_sc_hd__and4b_1
*I *1182:Q O *D sky130_fd_sc_hd__dfrtp_2
*CAP
1 *941:A 3.9994e-05
2 *950:B 0.00270859
3 *1003:B 0
4 *975:B 0.000519701
5 *1182:Q 0.000226041
6 *235:60 0.00506508
7 *235:31 0.00255564
8 *235:10 0.000984891
9 *950:B *1020:A 7.53239e-05
10 *950:B *1140:A 3.41554e-05
11 *950:B *1144:A0 8.51746e-05
12 *950:B *236:33 0.000126513
13 *950:B *247:71 7.53239e-05
14 *235:10 *1004:A1 0.000119946
15 *235:31 *239:76 1.0057e-05
16 *235:31 *267:26 0.00010903
17 *235:60 *1117:D_N 5.18735e-06
18 *235:60 *239:76 6.82135e-06
19 *235:60 *239:93 6.96286e-05
20 *235:60 *267:26 0.000632357
21 *939:A *235:60 3.92756e-05
22 *946:A *950:B 0.000217043
23 *946:A *235:60 1.8935e-05
24 *952:D *950:B 6.46354e-05
25 *953:A1 *950:B 7.73312e-05
26 *987:B1 *975:B 0
27 *998:A *950:B 0.000938935
28 *1002:A1 *950:B 0
29 *1015:A *950:B 0.000379376
30 *1016:A2 *235:60 9.20565e-05
31 *1026:A1 *950:B 0.000396711
32 *1037:B1 *975:B 1.75432e-05
33 *1037:B1 *235:10 0.000306294
34 *1037:B1 *235:31 4.64762e-05
35 *1041:A1 *235:60 1.7635e-05
36 *1056:C1 *235:60 0.000879957
37 *1062:B1 *235:60 0.00121113
38 *1075:A1 *950:B 0.000287386
39 *1102:A *950:B 0.000107452
40 *1121:A *235:60 0.000411239
41 *1127:A *975:B 0.000154977
42 *1132:B *950:B 0.000101703
43 *1133:A *235:60 0.000177374
44 *1140:B *950:B 4.66108e-05
45 *1143:A *975:B 2.03162e-05
46 *1148:S *950:B 4.8328e-06
47 *1170:D *975:B 0.000502221
48 *1182:RESET_B *235:10 6.03947e-05
49 *57:36 *235:60 3.8698e-05
50 *58:28 *950:B 0.000956171
51 *64:32 *950:B 8.23457e-05
52 *65:14 *941:A 8.84839e-06
53 *65:14 *950:B 2.03127e-05
54 *65:14 *235:60 5.38475e-05
55 *70:32 *975:B 3.20096e-05
56 *77:55 *950:B 0.00066459
57 *77:121 *235:31 0.000150672
58 *77:131 *975:B 0.000420916
59 *77:131 *235:31 3.77809e-05
60 *77:145 *975:B 9.5482e-05
61 *78:51 *235:60 0.000296131
62 *78:84 *235:60 0.000451409
63 *81:12 *235:60 0.000107452
64 *83:8 *950:B 7.9642e-06
65 *83:10 *950:B 1.7635e-05
66 *84:26 *235:60 9.18162e-05
67 *85:20 *950:B 0.000114994
68 *93:37 *950:B 0.000811188
69 *127:51 *975:B 0
70 *127:51 *235:31 0
71 *145:47 *975:B 0.000491381
72 *145:47 *235:31 4.09813e-05
73 *154:18 *950:B 9.40413e-05
74 *185:20 *950:B 0.000132978
75 *230:61 *950:B 7.56599e-05
*RES
1 *1182:Q *235:10 8.64 
2 *235:10 *975:B 16.605 
3 *235:10 *235:31 4.74 
4 *235:31 *1003:B 3.6 
5 *235:31 *235:60 27.3827 
6 *235:60 *950:B 42.1141 
7 *235:60 *941:A 2.35375 
*END

*D_NET *236 0.034494
*CONN
*I *977:B I *D sky130_fd_sc_hd__nand2b_2
*I *952:A_N I *D sky130_fd_sc_hd__and4bb_1
*I *949:A_N I *D sky130_fd_sc_hd__nand3b_4
*I *1002:A0 I *D sky130_fd_sc_hd__mux2_2
*I *1007:A_N I *D sky130_fd_sc_hd__and4b_1
*I *1003:A_N I *D sky130_fd_sc_hd__and4b_1
*I *940:A I *D sky130_fd_sc_hd__clkbuf_4
*I *955:B I *D sky130_fd_sc_hd__and2b_1
*I *975:A_N I *D sky130_fd_sc_hd__and4b_1
*I *950:C_N I *D sky130_fd_sc_hd__nor3b_2
*I *1183:Q O *D sky130_fd_sc_hd__dfrtp_4
*CAP
1 *977:B 0.000332837
2 *952:A_N 0
3 *949:A_N 2.98274e-05
4 *1002:A0 0.000113056
5 *1007:A_N 1.42455e-05
6 *1003:A_N 0.000537913
7 *940:A 0.00153384
8 *955:B 0.000551865
9 *975:A_N 3.13926e-05
10 *950:C_N 2.04889e-05
11 *1183:Q 0.000224592
12 *236:194 0.000857457
13 *236:173 0.000684397
14 *236:156 0.000731523
15 *236:100 0.00281937
16 *236:73 0.00194749
17 *236:49 0.00213863
18 *236:39 0.00106591
19 *236:33 0.0017089
20 *236:12 0.000832091
21 *940:A *1113:A0 4.7672e-05
22 *977:B *977:A_N 0.000130688
23 *977:B *1020:A 0.000449761
24 *1003:A_N *957:A 6.32418e-06
25 *1003:A_N *1117:D_N 0.000196179
26 *1003:A_N *1154:A 6.95511e-05
27 *1003:A_N *239:76 1.92979e-05
28 *236:12 *255:83 0.00029933
29 *236:33 *255:83 0.000155497
30 *236:39 *972:A1 4.0843e-05
31 *236:39 *1140:A 7.73646e-05
32 *236:73 *259:14 7.39548e-05
33 *236:156 *1140:A 0.000371275
34 *236:194 *1054:A 0.000182253
35 *236:194 *271:43 0.000414702
36 *937:A *1003:A_N 1.86045e-05
37 *950:B *236:33 0.000126513
38 *955:A_N *955:B 4.70705e-05
39 *957:B *236:100 0.000180982
40 *959:A3 *1002:A0 8.23457e-05
41 *964:A *236:33 2.05571e-05
42 *970:A *236:12 0.00029719
43 *981:B1 *236:33 0.000793025
44 *990:B *949:A_N 1.23633e-05
45 *1007:D *236:39 4.63782e-05
46 *1008:A2 *236:194 0.00029169
47 *1010:B *236:49 0.000115854
48 *1010:B *236:73 2.41705e-05
49 *1022:B2 *236:156 9.23681e-05
50 *1022:B2 *236:173 0.000332469
51 *1024:B *236:73 5.92147e-05
52 *1026:A0 *236:39 0.000121027
53 *1026:A1 *236:33 1.91597e-05
54 *1052:B2 *955:B 5.03627e-05
55 *1056:A2 *236:49 8.36437e-05
56 *1072:B *236:49 0
57 *1093:B1 *236:73 0.000116802
58 *1093:B1 *236:100 1.31227e-05
59 *1102:A *236:33 0.000330732
60 *1113:S *955:B 0.000201508
61 *1118:A *236:100 0
62 *1129:A *236:39 8.23457e-05
63 *1137:A *1002:A0 1.18547e-05
64 *1141:A *236:33 2.39856e-05
65 *1144:S *1002:A0 4.60061e-05
66 *1160:D *236:12 1.43717e-05
67 *1161:D *1003:A_N 5.1018e-05
68 *1161:D *236:12 0.000298472
69 *1162:D *1007:A_N 4.66108e-05
70 *1162:D *236:39 0.00102564
71 *1164:CLK *955:B 0.000114098
72 *1167:CLK *940:A 0.000260572
73 *1167:CLK *955:B 2.39856e-05
74 *1170:D *975:A_N 1.67131e-05
75 *1170:D *236:100 5.37167e-05
76 *1171:D *236:39 2.19788e-05
77 *1180:D *236:156 0
78 *1181:D *236:73 2.87421e-05
79 *1183:D *1002:A0 0.000116048
80 *1183:D *236:156 0.000504282
81 *1185:A *236:39 5.74791e-05
82 *1186:A *236:39 6.06877e-05
83 *1187:A *236:39 6.83068e-05
84 *32:60 *236:39 0.000219813
85 *32:60 *236:156 0.000416055
86 *53:16 *955:B 0.000237243
87 *56:26 *1003:A_N 1.92979e-05
88 *64:68 *236:73 0.00010873
89 *77:43 *236:49 4.66474e-05
90 *81:28 *236:156 0.000219655
91 *81:28 *236:173 0.000354198
92 *81:72 *1003:A_N 8.10427e-06
93 *83:61 *236:49 1.03503e-05
94 *83:94 *1007:A_N 1.91597e-05
95 *83:94 *236:39 8.07242e-05
96 *84:26 *977:B 0
97 *84:83 *1003:A_N 5.82798e-05
98 *84:83 *236:49 2.70497e-05
99 *88:12 *949:A_N 8.12379e-05
100 *88:12 *236:194 0.000286412
101 *90:34 *236:49 0.000225463
102 *95:73 *236:73 0.000645536
103 *96:28 *236:100 6.59891e-05
104 *99:8 *236:39 0.000516263
105 *100:65 *1003:A_N 2.0198e-05
106 *100:65 *236:73 2.08692e-05
107 *106:95 *236:33 1.88602e-05
108 *127:51 *940:A 0.000521387
109 *154:18 *236:194 3.21851e-05
110 *157:30 *1003:A_N 0.000587693
111 *157:30 *236:73 4.03822e-05
112 *170:43 *949:A_N 5.93673e-05
113 *170:43 *236:194 0.000476554
114 *174:57 *236:194 4.77769e-05
115 *174:73 *236:194 8.35157e-05
116 *191:16 *236:100 0.000212114
117 *191:79 *1003:A_N 2.35896e-05
118 *191:124 *236:39 0.000339419
119 *198:24 *955:B 0.000233466
120 *198:24 *236:49 2.71417e-05
121 *198:24 *236:73 6.38352e-05
122 *201:90 *977:B 0.00011138
123 *201:92 *977:B 0.000602764
124 *201:92 *236:194 3.35219e-05
125 *201:100 *236:194 0.000249266
126 *208:81 *977:B 0.000376831
127 *208:81 *236:194 0.000754734
128 *210:28 *236:39 0.000273753
129 *230:61 *236:39 0
130 *233:23 *236:12 1.1392e-05
131 *233:23 *236:33 2.51519e-05
132 *233:27 *236:12 6.32798e-05
133 *234:18 *236:100 0.000267054
134 *234:31 *236:100 0.000155719
*RES
1 *1183:Q *236:12 12.14 
2 *236:12 *950:C_N 1.96 
3 *236:12 *236:33 7.08737 
4 *236:33 *236:39 20.4125 
5 *236:39 *236:49 9.4475 
6 *236:49 *236:73 10.8494 
7 *236:73 *975:A_N 2.215 
8 *236:73 *236:100 16.345 
9 *236:100 *955:B 14.6 
10 *236:100 *940:A 21.385 
11 *236:49 *1003:A_N 6.0941 
12 *236:39 *1007:A_N 2.05 
13 *236:33 *236:156 11.5145 
14 *236:156 *1002:A0 6.4025 
15 *236:156 *236:173 1.0624 
16 *236:173 *949:A_N 4.5975 
17 *236:173 *236:194 18.9275 
18 *236:194 *952:A_N 1.6 
19 *236:194 *977:B 15.62 
*END

*D_NET *237 0.0153179
*CONN
*I *977:A_N I *D sky130_fd_sc_hd__nand2b_2
*I *935:A I *D sky130_fd_sc_hd__clkbuf_4
*I *950:A I *D sky130_fd_sc_hd__nor3b_2
*I *1184:Q O *D sky130_fd_sc_hd__dfrtp_1
*CAP
1 *977:A_N 0.000777744
2 *935:A 0.000364148
3 *950:A 0.000131445
4 *1184:Q 0.00052071
5 *237:53 0.0021909
6 *237:18 0.00170117
7 *935:A *957:A 0.000225931
8 *935:A *1146:A0 8.68964e-06
9 *935:A *1192:A 0.000191335
10 *950:A *252:54 0.000169889
11 *977:A_N *957:A 0.000164497
12 *977:A_N *1054:A 4.41506e-05
13 *977:A_N *1107:A0 0.00127629
14 *237:53 *973:A1 0.000552263
15 *237:53 *1146:A0 1.19928e-05
16 *237:53 *262:12 0.000851213
17 *964:A *237:18 0.000150386
18 *977:B *977:A_N 0.000130688
19 *982:A *977:A_N 0.000374607
20 *982:B *977:A_N 6.13597e-05
21 *994:A *237:18 0.000107697
22 *1035:A1_N *237:53 1.43867e-05
23 *1035:A2_N *237:53 6.29308e-05
24 *1035:B1 *237:53 0.000591562
25 *1035:B2 *237:53 0.000106196
26 *1064:B *237:53 0.000206091
27 *1066:A *935:A 4.66474e-05
28 *1072:A *935:A 0.000192497
29 *1074:B1 *237:53 0.000103647
30 *1078:A2 *237:53 0.000118081
31 *1098:B1 *977:A_N 0
32 *1184:RESET_B *237:18 0.000116502
33 *32:60 *237:53 0.000119242
34 *37:16 *950:A 0.000290668
35 *37:16 *237:18 0.000192605
36 *71:43 *237:53 0.000106472
37 *77:43 *237:53 0.000589643
38 *81:72 *977:A_N 0.000127543
39 *83:94 *935:A 0.000219678
40 *83:94 *977:A_N 5.13769e-05
41 *89:22 *950:A 4.7878e-05
42 *95:73 *935:A 0.00018955
43 *99:43 *237:53 8.35106e-05
44 *106:95 *950:A 3.6028e-05
45 *106:95 *237:18 0.000140861
46 *119:46 *977:A_N 5.75488e-05
47 *127:51 *977:A_N 1.17602e-05
48 *155:82 *237:53 0.000419658
49 *174:6 *237:53 8.41307e-05
50 *174:45 *977:A_N 8.23457e-05
51 *178:71 *237:53 3.92746e-05
52 *198:28 *935:A 0.00014506
53 *201:80 *977:A_N 7.98959e-05
54 *202:14 *237:53 0.000577232
55 *233:147 *237:18 6.02811e-05
*RES
1 *1184:Q *237:18 13.2 
2 *237:18 *950:A 7.275 
3 *237:18 *237:53 42.285 
4 *237:53 *935:A 16.06 
5 *237:53 *977:A_N 22.605 
*END

*D_NET *238 0.0262398
*CONN
*I *1154:A I *D sky130_fd_sc_hd__inv_2
*I *1155:A I *D sky130_fd_sc_hd__inv_2
*I *1156:A I *D sky130_fd_sc_hd__inv_2
*I *1189:X O *D sky130_fd_sc_hd__clkbuf_2
*CAP
1 *1154:A 0.00334157
2 *1155:A 0
3 *1156:A 0.000462077
4 *1189:X 0.000884305
5 *238:39 0.0044454
6 *238:12 0.00245021
7 *1154:A *972:A1 8.53113e-06
8 *1154:A *1004:A1 4.66108e-05
9 *1154:A *1041:A0 0.000172721
10 *1154:A *1056:A1 1.27484e-05
11 *1154:A *1117:D_N 4.43333e-05
12 *1154:A *260:40 0.000118081
13 *1156:A *1091:A0 4.66108e-05
14 *1156:A *271:24 0.000403294
15 *238:12 *271:24 0.0016326
16 *238:39 *1091:A0 0
17 *970:A *1154:A 0.000165307
18 *1003:A_N *1154:A 6.95511e-05
19 *1004:A2 *1154:A 0.000266368
20 *1004:C1 *1154:A 0.000177015
21 *1016:A2 *1154:A 0.000463224
22 *1021:B1 *238:12 0.000128259
23 *1032:B1 *1154:A 0.000141572
24 *1051:A0 *238:12 0
25 *1062:B1 *238:12 2.05571e-05
26 *1082:A *1154:A 1.33285e-05
27 *1082:A *238:39 4.77719e-05
28 *1085:S *1154:A 3.92756e-05
29 *1092:A *1156:A 2.69217e-05
30 *1096:A *1154:A 4.16311e-05
31 *1098:A2 *1154:A 2.39856e-05
32 *1103:A1 *1154:A 0.000162931
33 *1103:S *1156:A 0.000348011
34 *1114:A *1154:A 0.000192508
35 *1131:A *1154:A 0.00232654
36 *1161:D *1154:A 0.00278167
37 *1177:D *238:39 5.1068e-05
38 *19:16 *1156:A 3.16368e-05
39 *42:14 *1156:A 0.00122419
40 *42:14 *238:12 0.00179077
41 *71:14 *1154:A 0.000226715
42 *71:20 *1154:A 4.66108e-05
43 *78:51 *1154:A 3.92756e-05
44 *88:70 *1154:A 0.000296755
45 *116:82 *1154:A 0.000172434
46 *191:34 *1156:A 0.000158519
47 *191:79 *1154:A 7.33639e-05
48 *197:28 *1154:A 0.000119756
49 *211:26 *238:12 5.73174e-05
50 *216:20 *1156:A 5.31158e-06
51 *221:43 *1156:A 0.000147915
52 *221:43 *238:12 0.000274713
53 *233:47 *238:39 1.79536e-05
*RES
1 *1189:X *238:12 33.9675 
2 *238:12 *1156:A 20.7525 
3 *238:12 *238:39 5.2937 
4 *238:39 *1155:A 1.6 
5 *238:39 *1154:A 31.0727 
*END

*D_NET *239 0.0373298
*CONN
*I *1142:B I *D sky130_fd_sc_hd__and3_1
*I *1130:B I *D sky130_fd_sc_hd__nand3_1
*I *943:A I *D sky130_fd_sc_hd__and3_1
*I *1105:A I *D sky130_fd_sc_hd__and3_1
*I *945:A1 I *D sky130_fd_sc_hd__a21oi_1
*I *1117:D_N I *D sky130_fd_sc_hd__or4b_1
*I *947:A I *D sky130_fd_sc_hd__xor2_1
*I *1083:A I *D sky130_fd_sc_hd__and2_1
*I *1190:X O *D sky130_fd_sc_hd__buf_2
*CAP
1 *1142:B 0.00130441
2 *1130:B 0.000185719
3 *943:A 2.95908e-05
4 *1105:A 0.00043039
5 *945:A1 0.000584961
6 *1117:D_N 0.000172601
7 *947:A 0
8 *1083:A 8.43373e-05
9 *1190:X 0.000462568
10 *239:93 0.00140333
11 *239:76 0.00157544
12 *239:64 0.00290753
13 *239:50 0.00215768
14 *239:39 0.000996183
15 *239:22 0.00117913
16 *239:10 0.000633089
17 *239:8 0.00188031
18 *945:A1 *972:B2 5.6679e-05
19 *1105:A *1004:A1 3.69766e-05
20 *1105:A *1193:A 0.000341401
21 *1117:D_N *957:A 5.63183e-05
22 *1130:B *249:33 4.21209e-05
23 *1142:B *1008:A1 0.001075
24 *1142:B *1098:A1 0
25 *1142:B *1103:A0 9.55096e-05
26 *1142:B *249:33 0.000744429
27 *239:10 *249:33 0.000438041
28 *239:39 *1091:A0 2.29568e-05
29 *239:39 *1103:A0 0.000110508
30 *239:39 *250:29 0.00041401
31 *937:A *239:64 0
32 *947:B *239:50 1.91597e-05
33 *947:B *239:64 6.92772e-05
34 *972:B1 *945:A1 6.04355e-05
35 *992:A1 *1105:A 0.000349007
36 *992:A1 *239:93 0.000221342
37 *992:B1 *239:93 0.00015222
38 *1003:A_N *1117:D_N 0.000196179
39 *1003:A_N *239:76 1.92979e-05
40 *1016:A2 *1105:A 0.000135206
41 *1016:A2 *1117:D_N 7.56727e-05
42 *1016:A2 *239:93 0.00054231
43 *1016:B1 *239:39 0.000824928
44 *1018:A *1117:D_N 4.66108e-05
45 *1019:B *1130:B 9.12494e-06
46 *1021:A2 *1142:B 1.7635e-05
47 *1023:A1 *239:8 3.64998e-06
48 *1023:S *239:8 0.000264161
49 *1024:A *943:A 1.91597e-05
50 *1024:A *239:39 4.88504e-05
51 *1024:A *239:50 0.000408062
52 *1030:A *239:64 4.00158e-05
53 *1037:A2 *1105:A 2.99026e-05
54 *1041:A1 *239:76 5.91413e-05
55 *1043:A *239:76 0.000147581
56 *1044:B *239:64 7.43284e-05
57 *1050:S *1105:A 0.000125813
58 *1051:A0 *1142:B 0
59 *1052:B2 *1142:B 0
60 *1056:B1 *945:A1 0.000551363
61 *1101:A_N *239:39 0.000899378
62 *1101:A_N *239:50 8.46818e-05
63 *1105:C *1105:A 1.79445e-05
64 *1127:A *239:76 0.000589451
65 *1130:A *1130:B 5.35313e-05
66 *1130:C *1130:B 5.26948e-05
67 *1145:A *239:10 0
68 *1145:A *239:22 0.000160145
69 *1146:A1 *945:A1 5.38346e-05
70 *1154:A *1117:D_N 4.43333e-05
71 *1160:D *239:64 0.00153792
72 *1167:CLK *239:76 0
73 *1178:D *1117:D_N 5.74025e-05
74 *19:16 *239:39 0.000294706
75 *28:26 *239:64 0.00352913
76 *48:38 *239:93 2.11965e-05
77 *53:16 *239:64 8.19796e-05
78 *56:26 *239:76 0.000613417
79 *57:36 *945:A1 2.15449e-05
80 *57:36 *1117:D_N 5.70925e-06
81 *57:36 *239:76 5.89097e-05
82 *57:36 *239:93 7.92354e-05
83 *64:68 *945:A1 0.000419747
84 *77:121 *239:76 9.58333e-05
85 *77:131 *239:76 0.000629959
86 *78:51 *1117:D_N 4.12831e-05
87 *82:66 *239:64 0
88 *82:135 *945:A1 0.000230529
89 *82:135 *1105:A 7.56872e-05
90 *84:130 *1105:A 1.42674e-05
91 *88:70 *945:A1 0.00040296
92 *89:48 *1105:A 3.82018e-05
93 *100:65 *1117:D_N 1.54426e-06
94 *109:40 *1142:B 1.35532e-05
95 *109:40 *239:22 0.000328177
96 *127:51 *239:76 0
97 *127:51 *239:93 7.65498e-05
98 *139:18 *239:22 0.000119056
99 *145:47 *239:76 7.16517e-05
100 *152:42 *1142:B 0.000459285
101 *153:24 *1130:B 0
102 *153:24 *1142:B 0.000616973
103 *153:24 *239:10 0.000405776
104 *178:71 *945:A1 1.56428e-05
105 *180:8 *1105:A 0.000609594
106 *180:63 *239:64 0
107 *191:79 *1117:D_N 2.22315e-05
108 *215:12 *239:22 8.41307e-05
109 *215:12 *239:39 0.000117159
110 *218:20 *1117:D_N 4.66108e-05
111 *229:22 *239:39 0.000112857
112 *235:31 *239:76 1.0057e-05
113 *235:60 *1117:D_N 5.18735e-06
114 *235:60 *239:76 6.82135e-06
115 *235:60 *239:93 6.96286e-05
*RES
1 *1190:X *239:8 8.88 
2 *239:8 *239:10 5.0775 
3 *239:10 *239:22 10.0925 
4 *239:22 *1083:A 2.755 
5 *239:22 *239:39 26.605 
6 *239:39 *947:A 1.6 
7 *239:39 *239:50 5.055 
8 *239:50 *239:64 49.4925 
9 *239:64 *239:76 23.75 
10 *239:76 *1117:D_N 5.6801 
11 *239:76 *239:93 1.20333 
12 *239:93 *945:A1 18.6425 
13 *239:93 *1105:A 12.3482 
14 *239:50 *943:A 2.05 
15 *239:10 *1130:B 6.5325 
16 *239:8 *1142:B 32.43 
*END

*D_NET *240 0.00707315
*CONN
*I *1191:A I *D sky130_fd_sc_hd__buf_1
*I *1065:Y O *D sky130_fd_sc_hd__xnor2_1
*CAP
1 *1191:A 0.00199424
2 *1065:Y 0.00199424
3 *1191:A *1004:A1 0.000252009
4 *1191:A *1128:A1 0.000506299
5 *1191:A *1193:A 0.000412201
6 *1191:A *260:40 0
7 *973:B1 *1191:A 3.11374e-05
8 *988:C *1191:A 7.45794e-05
9 *1005:A *1191:A 0.000123955
10 *1006:A3 *1191:A 4.66108e-05
11 *1068:A *1191:A 1.92979e-05
12 *64:12 *1191:A 9.5799e-06
13 *82:12 *1191:A 0.00102173
14 *89:48 *1191:A 0.000371797
15 *112:18 *1191:A 0.000158845
16 *180:43 *1191:A 4.94457e-05
17 *206:18 *1191:A 7.18452e-06
*RES
1 *1065:Y *1191:A 47.07 
*END

*D_NET *241 0.00457019
*CONN
*I *1192:A I *D sky130_fd_sc_hd__buf_1
*I *1072:Y O *D sky130_fd_sc_hd__nand2_1
*CAP
1 *1192:A 0.000870986
2 *1072:Y 0.000870986
3 *1192:A *1128:A1 4.66108e-05
4 *935:A *1192:A 0.000191335
5 *1072:A *1192:A 7.94912e-05
6 *1128:A0 *1192:A 0.000809765
7 *1128:S *1192:A 0.000377128
8 *1129:A *1192:A 0.000138498
9 *1131:A *1192:A 0.00011831
10 *50:18 *1192:A 0.000991831
11 *77:6 *1192:A 9.97536e-06
12 *83:94 *1192:A 6.69608e-06
13 *206:34 *1192:A 5.85807e-05
*RES
1 *1072:Y *1192:A 24.815 
*END

*D_NET *242 0.010181
*CONN
*I *1193:A I *D sky130_fd_sc_hd__buf_1
*I *1074:Y O *D sky130_fd_sc_hd__o31ai_1
*CAP
1 *1193:A 0.00247437
2 *1074:Y 0.00247437
3 *1193:A *1004:A1 0.000109007
4 *1193:A *1128:A1 0.000398073
5 *1193:A *1196:A 1.74795e-05
6 *972:B1 *1193:A 0.000190803
7 *1035:A1_N *1193:A 0.00013158
8 *1048:A *1193:A 0.000597114
9 *1050:S *1193:A 0.000342562
10 *1102:A *1193:A 0.000618581
11 *1105:A *1193:A 0.000341401
12 *1128:A0 *1193:A 0.00062914
13 *1191:A *1193:A 0.000412201
14 *57:22 *1193:A 8.19825e-05
15 *65:14 *1193:A 0.000114337
16 *82:135 *1193:A 7.10154e-05
17 *83:94 *1193:A 0.000180207
18 *89:22 *1193:A 0.000211395
19 *89:48 *1193:A 0.000148985
20 *127:51 *1193:A 0.000279075
21 *178:71 *1193:A 0.000326669
22 *191:124 *1193:A 1.17614e-05
23 *223:30 *1193:A 0
24 *230:86 *1193:A 1.88602e-05
*RES
1 *1074:Y *1193:A 27.038 
*END

*D_NET *243 0.0163522
*CONN
*I *1194:A I *D sky130_fd_sc_hd__buf_1
*I *1076:X O *D sky130_fd_sc_hd__a31o_1
*CAP
1 *1194:A 0.00341476
2 *1076:X 0.00341476
3 *1194:A *1136:A 4.01019e-05
4 *937:A *1194:A 0.000146541
5 *939:A *1194:A 1.25379e-05
6 *951:A *1194:A 0.000119762
7 *956:A *1194:A 1.02564e-05
8 *957:B *1194:A 0.000383935
9 *970:B *1194:A 0.00113294
10 *976:A2 *1194:A 0
11 *988:C *1194:A 5.87342e-05
12 *1010:B *1194:A 7.01303e-05
13 *1016:A2 *1194:A 7.08519e-05
14 *1093:B1 *1194:A 0.000277305
15 *1163:D *1194:A 0.000332231
16 *1181:D *1194:A 0.00443581
17 *48:38 *1194:A 0.000454715
18 *82:12 *1194:A 0.000351623
19 *89:48 *1194:A 0.000369388
20 *90:34 *1194:A 0.000451069
21 *95:53 *1194:A 0.000804803
*RES
1 *1076:X *1194:A 25.6734 
*END

*D_NET *244 0.0112851
*CONN
*I *1195:A I *D sky130_fd_sc_hd__buf_1
*I *1077:X O *D sky130_fd_sc_hd__a211o_1
*CAP
1 *1195:A 0.00223762
2 *1077:X 0.000968702
3 *244:12 0.00320633
4 *1195:A *976:A1 2.14655e-05
5 *244:12 *247:18 0.000950095
6 *244:12 *248:23 1.08335e-05
7 *976:A2 *1195:A 8.23457e-05
8 *976:C1 *1195:A 0.00119307
9 *1006:A1 *1195:A 0.000113013
10 *1006:A3 *1195:A 5.5489e-05
11 *1017:B *244:12 1.32638e-05
12 *1039:B1 *244:12 1.38766e-05
13 *1056:A2 *244:12 5.83121e-06
14 *1187:A *244:12 0.000111547
15 *126:22 *1195:A 0.000883589
16 *145:75 *244:12 0.0002793
17 *157:30 *244:12 0.000907945
18 *201:52 *244:12 8.40213e-05
19 *234:95 *244:12 0.00014676
*RES
1 *1077:X *244:12 25.685 
2 *244:12 *1195:A 29.92 
*END

*D_NET *245 0.0125084
*CONN
*I *1196:A I *D sky130_fd_sc_hd__buf_1
*I *1078:Y O *D sky130_fd_sc_hd__o31ai_2
*CAP
1 *1196:A 0.00270428
2 *1078:Y 0.00270428
3 seg[0] *1196:A 4.76884e-05
4 seg[4] *1196:A 9.58678e-06
5 *1029:A1 *1196:A 0.00110758
6 *1035:A1_N *1196:A 0.000276218
7 *1037:A2 *1196:A 0.000255549
8 *1052:A2 *1196:A 1.66586e-05
9 *1078:A3 *1196:A 1.83975e-05
10 *1093:B1 *1196:A 0.000182242
11 *1094:A1 *1196:A 5.04594e-05
12 *1100:B *1196:A 9.5799e-06
13 *1193:A *1196:A 1.74795e-05
14 *56:26 *1196:A 0.000399497
15 *83:94 *1196:A 0.00147133
16 *106:37 *1196:A 0
17 *116:60 *1196:A 0.000130474
18 *127:51 *1196:A 1.57264e-05
19 *128:12 *1196:A 0.000455716
20 *166:26 *1196:A 0.00019336
21 *180:43 *1196:A 3.76596e-05
22 *184:20 *1196:A 0.00232774
23 *196:31 *1196:A 5.46937e-05
24 *221:12 *1196:A 2.21571e-05
*RES
1 *1078:Y *1196:A 45.1217 
*END

*D_NET *246 0.00372113
*CONN
*I *1197:A I *D sky130_fd_sc_hd__buf_1
*I *1080:Y O *D sky130_fd_sc_hd__nand2_1
*CAP
1 *1197:A 0.000494787
2 *1080:Y 0.000494787
3 *1165:D *1197:A 0
4 *128:12 *1197:A 0.00128459
5 *166:26 *1197:A 0
6 *180:43 *1197:A 0.00144697
*RES
1 *1080:Y *1197:A 25.155 
*END

*D_NET *247 0.0223076
*CONN
*I *1132:A I *D sky130_fd_sc_hd__and2_1
*I *948:A I *D sky130_fd_sc_hd__inv_2
*I *972:A1 I *D sky130_fd_sc_hd__o221a_1
*I *1172:Q O *D sky130_fd_sc_hd__dfxtp_1
*CAP
1 *1132:A 0.000726402
2 *948:A 4.81917e-05
3 *972:A1 0.00123512
4 *1172:Q 0.000981967
5 *247:71 0.00270072
6 *247:18 0.00414321
7 *972:A1 *1009:A2 1.88656e-05
8 *972:A1 *1056:A1 0.000128403
9 *1132:A *270:28 1.34687e-05
10 *247:18 *976:A1 0.000204316
11 *247:18 *1009:A2 0.000220504
12 *247:18 *248:23 0.000534382
13 *247:71 *1020:A 0.000222825
14 *247:71 *1124:A1 0.000166804
15 *946:A *247:71 0.000641763
16 *950:B *247:71 7.53239e-05
17 *954:A *1132:A 0.000198994
18 *954:B_N *1132:A 7.09204e-05
19 *959:A3 *948:A 9.12494e-06
20 *972:A2 *972:A1 0.000511557
21 *985:C1 *948:A 2.8846e-05
22 *985:C1 *1132:A 7.47467e-05
23 *1004:C1 *972:A1 8.53224e-05
24 *1006:A1 *247:18 0.000147949
25 *1006:A1 *247:71 0.000125653
26 *1007:D *972:A1 4.3338e-06
27 *1011:B1 *247:18 2.4002e-05
28 *1039:B1 *972:A1 9.06149e-05
29 *1056:A2 *972:A1 1.92979e-05
30 *1079:A2 *1132:A 0
31 *1096:A *972:A1 1.19928e-05
32 *1123:A *247:18 4.77807e-05
33 *1129:A *972:A1 8.35106e-05
34 *1132:B *1132:A 1.55434e-05
35 *1137:A *247:71 5.25339e-05
36 *1146:S *972:A1 0.000112734
37 *1154:A *972:A1 8.53113e-06
38 *1158:D *247:18 0.000507406
39 *1158:D *247:71 0.00124847
40 *1165:CLK *972:A1 0
41 *1180:D *948:A 0.000101007
42 *1180:D *1132:A 0.000686842
43 *1187:A *972:A1 1.08758e-05
44 *31:28 *247:18 0
45 *64:32 *972:A1 7.5434e-05
46 *71:14 *972:A1 1.07797e-05
47 *71:20 *972:A1 0.00139553
48 *77:10 *972:A1 0
49 *77:117 *972:A1 2.39856e-05
50 *82:54 *247:18 2.34844e-05
51 *83:30 *972:A1 7.71493e-05
52 *84:83 *247:18 3.92756e-05
53 *90:34 *972:A1 7.59468e-05
54 *93:12 *1132:A 1.34618e-05
55 *95:53 *247:18 1.7635e-05
56 *110:53 *247:71 6.49495e-05
57 *115:14 *247:18 0
58 *128:38 *247:71 0.00068432
59 *141:14 *247:71 0.000540348
60 *141:18 *247:71 3.44021e-05
61 *146:32 *972:A1 8.7152e-06
62 *146:32 *247:71 0.000966139
63 *157:30 *247:18 9.05513e-05
64 *191:97 *972:A1 0.000117811
65 *234:91 *972:A1 0.000523638
66 *234:93 *972:A1 4.77719e-05
67 *234:95 *972:A1 4.89295e-05
68 *234:148 *972:A1 3.97064e-05
69 *234:163 *972:A1 5.57958e-05
70 *236:39 *972:A1 4.0843e-05
71 *244:12 *247:18 0.000950095
*RES
1 *1172:Q *247:18 21.3801 
2 *247:18 *972:A1 38.9229 
3 *247:18 *247:71 6.64553 
4 *247:71 *948:A 4.8525 
5 *247:71 *1132:A 17.8725 
*END

*D_NET *248 0.0125187
*CONN
*I *1134:A I *D sky130_fd_sc_hd__and2_1
*I *976:A1 I *D sky130_fd_sc_hd__a211o_2
*I *985:B2 I *D sky130_fd_sc_hd__o221a_1
*I *1173:Q O *D sky130_fd_sc_hd__dfxtp_1
*CAP
1 *1134:A 0
2 *976:A1 0.0017923
3 *985:B2 0.000586769
4 *1173:Q 0
5 *248:23 0.00245757
6 *248:4 0.00125204
7 *248:23 *1003:C 2.5195e-05
8 *248:23 *1126:A1 0.000230982
9 *976:A2 *976:A1 3.41176e-05
10 *976:C1 *976:A1 0.000277087
11 *1006:A3 *976:A1 0.000539268
12 *1025:A1 *248:23 8.77472e-05
13 *1025:A2 *248:23 2.83644e-05
14 *1025:B1 *248:23 1.21256e-05
15 *1033:B *985:B2 0.000111024
16 *1039:A1 *985:B2 0.00059333
17 *1039:A1 *248:23 0.000533586
18 *1110:A *976:A1 0.00114075
19 *1125:A *976:A1 0.000492066
20 *1134:B *976:A1 1.88656e-05
21 *1151:A *248:23 3.27931e-05
22 *1173:CLK *985:B2 5.8322e-05
23 *1195:A *976:A1 2.14655e-05
24 *56:26 *976:A1 0.000138536
25 *64:68 *976:A1 0.000164721
26 *115:14 *976:A1 0.000415875
27 *115:14 *248:23 1.63741e-05
28 *116:98 *985:B2 0.000158757
29 *118:63 *976:A1 4.77807e-05
30 *127:51 *976:A1 0.000107904
31 *145:75 *248:23 7.9642e-06
32 *149:30 *976:A1 0.000385474
33 *244:12 *248:23 1.08335e-05
34 *247:18 *976:A1 0.000204316
35 *247:18 *248:23 0.000534382
*RES
1 *1173:Q *248:4 1.6 
2 *248:4 *985:B2 13.985 
3 *248:4 *248:23 14.27 
4 *248:23 *976:A1 44.375 
5 *248:23 *1134:A 3.6 
*END

*D_NET *249 0.013136
*CONN
*I *1008:A1 I *D sky130_fd_sc_hd__a211o_1
*I *1021:A1 I *D sky130_fd_sc_hd__a21oi_1
*I *1136:A I *D sky130_fd_sc_hd__and2_1
*I *1174:Q O *D sky130_fd_sc_hd__dfxtp_1
*CAP
1 *1008:A1 0.000873844
2 *1021:A1 0.000481516
3 *1136:A 0.000793023
4 *1174:Q 0.00010917
5 *249:33 0.00277574
6 *249:8 0.00232258
7 *249:33 *255:83 0
8 *249:33 *265:16 0
9 *956:A *1136:A 0.000871416
10 *981:A1 *1008:A1 0
11 *981:A1 *249:33 8.93069e-05
12 *981:A2 *249:33 4.24562e-05
13 *1019:B *249:33 5.63118e-05
14 *1021:A2 *1021:A1 7.66388e-05
15 *1023:A0 *249:33 0.000547929
16 *1076:A1 *1136:A 0
17 *1076:A1 *249:33 0
18 *1076:A2 *1136:A 2.37828e-05
19 *1076:B1 *1136:A 0
20 *1130:B *249:33 4.21209e-05
21 *1131:A *249:33 0
22 *1142:A *1008:A1 5.06989e-05
23 *1142:B *1008:A1 0.001075
24 *1142:B *249:33 0.000744429
25 *1163:D *1136:A 0.000133427
26 *1184:RESET_B *1021:A1 0.000483352
27 *1194:A *1136:A 4.01019e-05
28 *28:24 *1136:A 0
29 *28:24 *249:33 0
30 *67:8 *1136:A 0.000245257
31 *70:32 *1008:A1 4.36573e-06
32 *120:26 *249:33 0
33 *138:34 *1136:A 7.9642e-06
34 *138:34 *249:33 0.000111213
35 *146:32 *1008:A1 3.60024e-06
36 *152:42 *1008:A1 0.000533592
37 *233:77 *249:8 0.000159156
38 *239:10 *249:33 0.000438041
*RES
1 *1174:Q *249:8 5.085 
2 *249:8 *1136:A 20.355 
3 *249:8 *249:33 29.085 
4 *249:33 *1021:A1 9.57 
5 *249:33 *1008:A1 26.755 
*END

*D_NET *250 0.0217886
*CONN
*I *1004:A1 I *D sky130_fd_sc_hd__a211o_1
*I *1138:A I *D sky130_fd_sc_hd__and2_1
*I *1040:A0 I *D sky130_fd_sc_hd__mux2_1
*I *1175:Q O *D sky130_fd_sc_hd__dfxtp_1
*CAP
1 *1004:A1 0.00218543
2 *1138:A 5.23829e-05
3 *1040:A0 0.000363372
4 *1175:Q 0
5 *250:64 0.00371759
6 *250:29 0.00263313
7 *250:4 0.00141196
8 *1004:A1 *260:40 3.29217e-05
9 *1040:A0 *255:83 8.41384e-05
10 *1040:A0 *271:24 0.00125563
11 *250:64 *1126:A1 0.000702312
12 *992:B1 *1004:A1 6.33103e-05
13 *1000:B1 *250:64 0.000274464
14 *1004:B1 *1004:A1 6.88421e-05
15 *1004:C1 *1004:A1 4.66108e-05
16 *1006:A3 *1004:A1 0
17 *1023:S *1040:A0 0.000949404
18 *1024:A *1138:A 3.74571e-05
19 *1040:S *1040:A0 1.91597e-05
20 *1052:B2 *1040:A0 0.00030332
21 *1076:A2 *250:29 0.000417223
22 *1076:A3 *250:29 7.83124e-05
23 *1105:A *1004:A1 3.69766e-05
24 *1111:S *250:64 0.000190004
25 *1116:A *250:64 0.000118353
26 *1139:A *250:64 0.000449337
27 *1154:A *1004:A1 4.66108e-05
28 *1166:D *250:64 0.000504236
29 *1181:D *250:29 2.50284e-05
30 *1181:D *250:64 0.000534379
31 *1182:RESET_B *1004:A1 0.000622012
32 *1191:A *1004:A1 0.000252009
33 *1193:A *1004:A1 0.000109007
34 *19:16 *250:29 0.000415677
35 *81:92 *1004:A1 0.000141641
36 *81:92 *250:64 4.99782e-05
37 *84:89 *250:64 9.93169e-05
38 *84:130 *1004:A1 5.69898e-06
39 *89:48 *1004:A1 0.000308729
40 *109:40 *250:29 8.33607e-05
41 *145:47 *1004:A1 0.000773775
42 *169:16 *1138:A 3.57743e-05
43 *169:35 *250:64 0.000932943
44 *173:32 *1040:A0 0.000174362
45 *173:32 *250:29 9.1799e-05
46 *187:24 *1040:A0 0.000155608
47 *206:34 *1004:A1 4.88316e-05
48 *227:67 *1004:A1 0.000164223
49 *227:67 *250:64 0.000187988
50 *235:10 *1004:A1 0.000119946
51 *239:39 *250:29 0.00041401
*RES
1 *1175:Q *250:4 1.6 
2 *250:4 *1040:A0 21.725 
3 *250:4 *250:29 22.2 
4 *250:29 *1138:A 4.5975 
5 *250:29 *250:64 31.7912 
6 *250:64 *1004:A1 40.545 
*END

*D_NET *251 0.0137833
*CONN
*I *1056:A1 I *D sky130_fd_sc_hd__o211ai_1
*I *1097:B2 I *D sky130_fd_sc_hd__a221o_1
*I *1140:A I *D sky130_fd_sc_hd__and2_1
*I *1176:Q O *D sky130_fd_sc_hd__dfxtp_1
*CAP
1 *1056:A1 0.000455191
2 *1097:B2 0.000871247
3 *1140:A 0.00111428
4 *1176:Q 0.000113407
5 *251:16 0.00307851
6 *251:6 0.00166158
7 *1056:A1 *1041:A0 7.89148e-05
8 *1097:B2 *1055:A2 7.16743e-05
9 *1097:B2 *261:14 0.000238879
10 *251:6 *973:A1 5.85128e-05
11 *251:16 *973:A1 3.93101e-05
12 *950:B *1140:A 3.41554e-05
13 *953:C1 *1097:B2 5.0794e-06
14 *959:A1 *1097:B2 3.80608e-05
15 *965:A *1097:B2 0.000199092
16 *972:A1 *1056:A1 0.000128403
17 *972:C1 *1056:A1 1.11363e-05
18 *1005:C *251:6 4.89362e-05
19 *1020:B *251:16 0.000992303
20 *1022:B2 *1097:B2 2.22315e-05
21 *1026:A1 *1140:A 4.77719e-05
22 *1032:A1 *251:16 0.00012103
23 *1032:A2 *251:16 0.000111178
24 *1035:A1_N *1140:A 0.000489697
25 *1038:A *251:16 4.77769e-05
26 *1039:B1 *251:16 4.77807e-05
27 *1054:B *1097:B2 8.88747e-05
28 *1056:C1 *1056:A1 0
29 *1058:C *1097:B2 0.000156765
30 *1058:D *1097:B2 0.000122184
31 *1062:B1 *1056:A1 0.000200165
32 *1078:A3 *1097:B2 2.75307e-06
33 *1078:A3 *251:16 7.02539e-05
34 *1095:B1 *1097:B2 9.04081e-05
35 *1097:A2 *1056:A1 2.05571e-05
36 *1097:B1 *1097:B2 4.92433e-06
37 *1097:C1 *1097:B2 4.66108e-05
38 *1100:B *251:16 0
39 *1102:A *251:16 0.000225285
40 *1132:B *1140:A 0
41 *1146:S *1056:A1 0
42 *1154:A *1056:A1 1.27484e-05
43 *1162:D *1140:A 1.43717e-05
44 *1180:D *1140:A 0.000341401
45 *32:60 *1140:A 0.000169144
46 *65:14 *1056:A1 0.00013895
47 *81:28 *1097:B2 2.62229e-05
48 *90:84 *251:16 5.06604e-05
49 *97:22 *1097:B2 9.01621e-05
50 *98:79 *1097:B2 9.47972e-06
51 *100:32 *1140:A 4.12775e-05
52 *108:18 *1097:B2 0.000196276
53 *110:70 *1056:A1 0.000229297
54 *110:78 *1056:A1 0.000108595
55 *119:46 *251:16 8.53307e-05
56 *123:22 *1097:B2 6.95177e-05
57 *123:22 *1140:A 0.000105295
58 *123:22 *251:16 1.19928e-05
59 *161:12 *1097:B2 3.72071e-05
60 *174:73 *1140:A 0.00041953
61 *204:28 *1056:A1 9.5799e-06
62 *230:61 *1140:A 1.26595e-05
63 *236:39 *1140:A 7.73646e-05
64 *236:156 *1140:A 0.000371275
*RES
1 *1176:Q *251:6 3.085 
2 *251:6 *251:16 20.41 
3 *251:16 *1140:A 25.85 
4 *251:16 *1097:B2 23.7674 
5 *251:6 *1056:A1 15.395 
*END

*D_NET *252 0.0238417
*CONN
*I *972:B2 I *D sky130_fd_sc_hd__o221a_1
*I *1120:A1 I *D sky130_fd_sc_hd__mux2_1
*I *276:DIODE I *D sky130_fd_sc_hd__diode_2
*I *1167:Q O *D sky130_fd_sc_hd__dfxtp_1
*CAP
1 *972:B2 0.00093148
2 *1120:A1 0.00024201
3 *276:DIODE 0
4 *1167:Q 0.00347303
5 *252:56 0.000780275
6 *252:54 0.0032887
7 *252:20 0.00715494
8 *972:B2 *975:C 7.60474e-05
9 *252:54 *1007:C 2.36561e-05
10 *252:54 *255:83 0.000228231
11 *945:A1 *972:B2 5.6679e-05
12 *950:A *252:54 0.000169889
13 *970:A *252:54 0
14 *972:A2 *972:B2 0.00015639
15 *972:B1 *972:B2 4.77719e-05
16 *972:C1 *972:B2 4.66108e-05
17 *981:A1 *252:54 0
18 *981:A1 *252:56 0.000119166
19 *1009:A1 *972:B2 0.000367656
20 *1009:A1 *252:54 2.08474e-05
21 *1026:S *252:54 3.68858e-05
22 *1059:A *252:20 5.93673e-05
23 *1064:B *252:54 0.000148823
24 *1065:B *252:54 8.23457e-05
25 *1068:A *252:20 4.2145e-05
26 *1079:B1 *252:54 8.73589e-05
27 *1092:A *252:20 3.92756e-05
28 *1116:A *252:54 5.50289e-05
29 *1118:A *252:20 0.000115886
30 *1120:S *1120:A1 6.71882e-05
31 *1161:D *252:54 0.000223561
32 *1168:CLK *252:54 0.000583605
33 *1176:D *252:54 1.92979e-05
34 *1180:D *252:54 3.80582e-05
35 *1183:CLK *252:54 7.39166e-05
36 *1183:D *252:54 5.61091e-05
37 *1183:RESET_B *252:54 7.05038e-05
38 *32:60 *252:54 0
39 *58:28 *1120:A1 4.54906e-05
40 *58:28 *252:56 4.06026e-05
41 *64:32 *972:B2 0.000646871
42 *64:32 *252:54 0.000684473
43 *83:30 *252:54 0.00060557
44 *88:70 *972:B2 9.90036e-05
45 *89:22 *972:B2 0.000397232
46 *89:22 *252:54 7.0572e-05
47 *103:32 *252:54 9.80528e-05
48 *106:95 *252:54 0.000171114
49 *191:16 *252:20 7.56599e-05
50 *191:128 *252:54 2.15454e-05
51 *204:28 *252:54 0.00119483
52 *230:61 *252:54 0.000338373
53 *233:137 *252:54 0.00033606
54 *234:163 *972:B2 3.3485e-05
*RES
1 *1167:Q *252:20 13.1043 
2 *252:20 *252:54 45.8972 
3 *252:54 *252:56 6.315 
4 *252:56 *276:DIODE 1.6 
5 *252:56 *1120:A1 5.17 
6 *252:20 *972:B2 8.98957 
*END

*D_NET *253 0.00664218
*CONN
*I *985:A1 I *D sky130_fd_sc_hd__o221a_1
*I *1122:A1 I *D sky130_fd_sc_hd__mux2_1
*I *1168:Q O *D sky130_fd_sc_hd__dfxtp_1
*CAP
1 *985:A1 0.000136715
2 *1122:A1 0.000814694
3 *1168:Q 0.000305186
4 *253:8 0.0012566
5 *1122:A1 *1111:A0 0
6 *938:A *1122:A1 0
7 *992:B1 *1122:A1 0.000219932
8 *1019:A *1122:A1 0.000118081
9 *1033:A *985:A1 6.11965e-05
10 *1033:B *1122:A1 0.000154908
11 *1033:B *253:8 0.000241215
12 *1034:A2 *1122:A1 0.000335499
13 *1046:B *1122:A1 4.77807e-05
14 *1071:B_N *1122:A1 0.00028488
15 *1071:B_N *253:8 0.000356072
16 *1092:A *1122:A1 0.000153816
17 *1123:A *1122:A1 5.16479e-05
18 *1132:B *253:8 5.97296e-05
19 *1135:A *1122:A1 0
20 *1140:B *253:8 4.91032e-05
21 *1161:D *985:A1 0.000193951
22 *60:14 *1122:A1 1.43622e-05
23 *116:82 *985:A1 4.55864e-06
24 *116:98 *985:A1 3.17287e-05
25 *116:98 *1122:A1 0.000133855
26 *124:36 *1122:A1 0.000415127
27 *157:30 *1122:A1 0.000194287
28 *185:20 *1122:A1 0.00022004
29 *191:34 *1122:A1 9.84942e-05
30 *205:22 *985:A1 0.000101748
31 *208:81 *253:8 0.000312872
32 *230:61 *253:8 0.000274109
*RES
1 *1168:Q *253:8 11.9925 
2 *253:8 *1122:A1 22.6875 
3 *253:8 *985:A1 5.67183 
*END

*D_NET *254 0.021982
*CONN
*I *1124:A1 I *D sky130_fd_sc_hd__mux2_1
*I *1020:A I *D sky130_fd_sc_hd__nand2_1
*I *1169:Q O *D sky130_fd_sc_hd__dfxtp_1
*CAP
1 *1124:A1 0.00337374
2 *1020:A 0.00198837
3 *1169:Q 0.000126747
4 *254:10 0.00548886
5 *1020:A *1054:A 7.56599e-05
6 *1020:A *1148:A0 0
7 *1020:A *267:26 0.000354339
8 *1124:A1 *1103:A0 0.000717335
9 *1124:A1 *1144:A0 7.00426e-05
10 *939:A *1124:A1 0.000213357
11 *946:A *1020:A 0.00141419
12 *946:A *1124:A1 3.92756e-05
13 *950:B *1020:A 7.53239e-05
14 *952:D *1020:A 0
15 *953:A1 *1020:A 0.000713485
16 *977:B *1020:A 0.000449761
17 *981:A1 *1124:A1 0.000110612
18 *985:C1 *1124:A1 0.000123878
19 *985:C1 *254:10 0.000160734
20 *1020:B *1020:A 0.000135964
21 *1023:S *1124:A1 1.233e-05
22 *1061:A2 *1124:A1 0.00146703
23 *1062:B1 *1124:A1 2.45e-05
24 *1078:A3 *1020:A 0.000275044
25 *1090:A *1124:A1 0.00106677
26 *1097:B1 *1020:A 1.49476e-05
27 *1098:B1 *1020:A 0.000136049
28 *1120:A0 *1124:A1 1.43369e-05
29 *1120:A0 *254:10 1.66925e-05
30 *1137:A *1020:A 0.000566781
31 *1137:A *1124:A1 0.000422012
32 *1159:D *1124:A1 0.000106321
33 *1179:CLK *1124:A1 5.49832e-05
34 *1181:D *1124:A1 4.24632e-05
35 *28:24 *1124:A1 0.000414313
36 *78:84 *1020:A 0
37 *81:28 *1020:A 0.000334512
38 *98:42 *1124:A1 3.87852e-05
39 *109:40 *1124:A1 0.000501688
40 *139:18 *1124:A1 6.26429e-05
41 *201:100 *1124:A1 1.60922e-05
42 *208:81 *1020:A 0.000112783
43 *208:81 *254:10 4.00702e-05
44 *215:12 *1124:A1 3.33871e-05
45 *233:51 *1124:A1 8.19574e-05
46 *233:53 *1124:A1 0.000104257
47 *247:71 *1020:A 0.000222825
48 *247:71 *1124:A1 0.000166804
*RES
1 *1169:Q *254:10 6.0675 
2 *254:10 *1020:A 23.55 
3 *254:10 *1124:A1 21.2078 
*END

*D_NET *255 0.0189757
*CONN
*I *1040:A1 I *D sky130_fd_sc_hd__mux2_1
*I *1126:A1 I *D sky130_fd_sc_hd__mux2_1
*I *1170:Q O *D sky130_fd_sc_hd__dfxtp_1
*CAP
1 *1040:A1 0
2 *1126:A1 0.00201845
3 *1170:Q 0.000622618
4 *255:83 0.00237203
5 *255:20 0.0050131
6 *1126:A1 *1111:A0 1.05613e-05
7 *255:83 *265:16 2.86265e-06
8 *255:83 *270:28 0.000489614
9 *938:A *255:20 0.000154986
10 *959:A3 *255:83 0.000592418
11 *964:A *255:83 6.98629e-05
12 *981:A1 *255:83 0.000199795
13 *981:A2 *1126:A1 3.41554e-05
14 *981:B1 *255:83 0.000115522
15 *987:A2 *1126:A1 0.00033249
16 *987:B1 *1126:A1 8.4031e-05
17 *1025:A2 *1126:A1 0.000159404
18 *1028:B1 *255:20 0.000116218
19 *1037:B1 *1126:A1 0.000229074
20 *1040:A0 *255:83 8.41384e-05
21 *1040:S *255:83 0.000581473
22 *1076:A2 *255:20 0.000284928
23 *1086:A *255:20 8.49936e-05
24 *1101:A_N *255:20 8.247e-05
25 *1130:C *255:20 0.000191549
26 *1130:C *255:83 0.000476069
27 *1141:A *255:83 7.1165e-05
28 *1157:D *255:83 7.0873e-05
29 *1166:D *1126:A1 0.000702312
30 *57:87 *255:20 0.000192779
31 *57:87 *255:83 1.0145e-05
32 *82:54 *1126:A1 0.000246645
33 *96:28 *255:20 0.000287977
34 *115:14 *1126:A1 2.82741e-05
35 *116:98 *255:20 0
36 *155:133 *255:83 8.77994e-05
37 *157:30 *255:20 2.44728e-05
38 *167:18 *255:83 0.000334066
39 *227:67 *1126:A1 0.000847986
40 *233:27 *255:83 1.01356e-05
41 *233:137 *255:83 4.19615e-05
42 *236:12 *255:83 0.00029933
43 *236:33 *255:83 0.000155497
44 *248:23 *1126:A1 0.000230982
45 *249:33 *255:83 0
46 *250:64 *1126:A1 0.000702312
47 *252:54 *255:83 0.000228231
*RES
1 *1170:Q *255:20 20.155 
2 *255:20 *1126:A1 43.94 
3 *255:20 *255:83 48.835 
4 *255:83 *1040:A1 1.6 
*END

*D_NET *256 0.0120706
*CONN
*I *1097:A1 I *D sky130_fd_sc_hd__a221o_1
*I *1128:A1 I *D sky130_fd_sc_hd__mux2_1
*I *1171:Q O *D sky130_fd_sc_hd__dfxtp_1
*CAP
1 *1097:A1 0.000220653
2 *1128:A1 0.00103799
3 *1171:Q 0.00132154
4 *256:22 0.00258018
5 *1097:A1 *1107:A0 2.86188e-05
6 *256:22 *1107:A0 7.83191e-05
7 *958:B *1128:A1 0.000333657
8 *982:A *1128:A1 0.000155601
9 *982:B *256:22 1.53053e-05
10 *990:B *256:22 2.87686e-05
11 *1029:B1_N *1128:A1 0.000234722
12 *1031:A *256:22 0.000316398
13 *1031:B *256:22 4.46173e-05
14 *1042:A1 *256:22 2.57422e-05
15 *1042:A3 *256:22 8.35068e-05
16 *1049:A *256:22 4.59452e-05
17 *1058:D *256:22 0
18 *1078:A3 *1097:A1 3.38392e-06
19 *1095:A1 *256:22 0.000164497
20 *1095:A2 *256:22 0.000183838
21 *1097:A2 *1097:A1 0.000144244
22 *1097:B1 *1097:A1 4.7873e-05
23 *1098:A2 *1128:A1 0
24 *1131:A *1128:A1 4.77757e-05
25 *1159:D *256:22 9.30679e-05
26 *1191:A *1128:A1 0.000506299
27 *1192:A *1128:A1 4.66108e-05
28 *1193:A *1128:A1 0.000398073
29 *57:22 *1128:A1 0.000247537
30 *78:84 *1097:A1 0.000122054
31 *78:84 *256:22 9.96128e-05
32 *82:162 *1128:A1 0
33 *83:94 *1128:A1 1.92979e-05
34 *88:70 *256:22 0.000486501
35 *97:22 *1128:A1 0.000245945
36 *106:57 *256:22 0.000121034
37 *108:49 *1128:A1 0
38 *120:88 *256:22 2.20014e-05
39 *129:28 *256:22 0.000121032
40 *155:98 *1097:A1 7.03219e-05
41 *168:20 *1128:A1 0.00089562
42 *170:8 *256:22 2.49909e-05
43 *185:63 *1128:A1 0.000331431
44 *188:16 *256:22 8.64421e-05
45 *197:28 *1128:A1 0.000989582
*RES
1 *1171:Q *256:22 26.19 
2 *256:22 *1128:A1 36.94 
3 *256:22 *1097:A1 7.875 
*END

*D_NET *257 0.0147479
*CONN
*I *957:A I *D sky130_fd_sc_hd__nand2_1
*I *1107:A0 I *D sky130_fd_sc_hd__mux2_1
*I *1162:Q O *D sky130_fd_sc_hd__dfxtp_1
*CAP
1 *957:A 0.00140734
2 *1107:A0 0.000807259
3 *1162:Q 0.000633263
4 *257:14 0.00284786
5 *957:A *975:C 2.08904e-05
6 *957:A *263:50 1.83182e-05
7 *257:14 *973:A1 8.79512e-05
8 *935:A *957:A 0.000225931
9 *937:A *957:A 0.00058026
10 *957:B *957:A 5.60381e-05
11 *977:A_N *957:A 0.000164497
12 *977:A_N *1107:A0 0.00127629
13 *986:B1 *957:A 1.58201e-05
14 *987:B1 *957:A 4.00045e-05
15 *992:B1 *957:A 4.3249e-05
16 *1003:A_N *957:A 6.32418e-06
17 *1032:A1 *257:14 2.14725e-05
18 *1032:A2 *257:14 8.247e-05
19 *1035:B2 *257:14 0.000155338
20 *1038:A *257:14 1.49225e-05
21 *1038:B *257:14 0.000125244
22 *1066:A *957:A 0.000290723
23 *1078:A2 *257:14 2.87686e-05
24 *1078:A3 *257:14 4.66108e-05
25 *1078:B1 *957:A 0.000290384
26 *1078:B1 *257:14 0.000416974
27 *1087:A1 *1107:A0 0.00037229
28 *1095:A1 *1107:A0 0.000334447
29 *1095:A2 *1107:A0 4.46808e-07
30 *1097:A1 *1107:A0 2.86188e-05
31 *1107:S *1107:A0 6.3081e-05
32 *1117:D_N *957:A 5.63183e-05
33 *1118:A *957:A 0
34 *1123:A *957:A 0.000101097
35 *1125:A *957:A 0.000396373
36 *1178:D *957:A 0.000385686
37 *56:26 *957:A 0
38 *77:117 *957:A 0.00032807
39 *78:16 *957:A 2.10582e-05
40 *78:51 *957:A 9.50189e-06
41 *81:72 *957:A 2.38374e-05
42 *84:26 *1107:A0 0
43 *90:84 *257:14 3.26941e-05
44 *100:65 *957:A 4.21127e-05
45 *116:60 *957:A 8.23457e-05
46 *116:60 *257:14 0.000342559
47 *119:46 *257:14 0.000119246
48 *123:22 *257:14 0.000193113
49 *127:51 *1107:A0 5.64022e-05
50 *149:30 *957:A 0.00049204
51 *155:98 *1107:A0 0.000292143
52 *157:30 *957:A 3.82018e-05
53 *174:45 *1107:A0 0.000193123
54 *191:54 *957:A 0.000211085
55 *191:79 *957:A 0.000352241
56 *201:80 *957:A 8.78233e-05
57 *206:47 *957:A 0.000309384
58 *256:22 *1107:A0 7.83191e-05
*RES
1 *1162:Q *257:14 18.215 
2 *257:14 *1107:A0 24.8 
3 *257:14 *957:A 36.5263 
*END

*D_NET *258 0.0124794
*CONN
*I *1109:A0 I *D sky130_fd_sc_hd__mux2_1
*I *978:A I *D sky130_fd_sc_hd__or2_2
*I *1163:Q O *D sky130_fd_sc_hd__dfxtp_1
*CAP
1 *1109:A0 0
2 *978:A 0.00163639
3 *1163:Q 0.00155894
4 *258:24 0.00319533
5 *978:A *1111:A0 0.000158991
6 *258:24 *1003:C 4.66108e-05
7 *258:24 *1111:A0 0.000164404
8 *258:24 *270:28 5.18208e-05
9 *258:24 *270:30 1.24601e-05
10 *937:A *978:A 0.000428533
11 *964:A *258:24 0.00088552
12 *978:B *978:A 0.00146062
13 *1011:A2 *978:A 0.000454433
14 *1011:A2 *258:24 0.00017512
15 *1011:B1 *978:A 0
16 *1025:A1 *258:24 8.7152e-06
17 *1025:A3 *258:24 3.93456e-05
18 *1026:A0 *258:24 0.000228235
19 *1027:A *258:24 9.67097e-05
20 *1039:A1 *258:24 9.57985e-05
21 *1065:A *978:A 0.000182968
22 *1085:A1 *258:24 8.73389e-06
23 *1085:S *258:24 2.80221e-05
24 *1099:A *978:A 8.7152e-06
25 *1099:A *258:24 0.000105897
26 *1113:S *978:A 0
27 *1130:C *258:24 5.84759e-05
28 *1180:D *258:24 3.85204e-05
29 *31:28 *978:A 0.000371497
30 *31:28 *258:24 0.000113167
31 *49:61 *258:24 0.000231234
32 *103:32 *258:24 4.89295e-05
33 *116:82 *258:24 0.000194278
34 *145:47 *258:24 0
35 *150:10 *978:A 7.47081e-05
36 *171:40 *258:24 0.000114302
37 *201:33 *258:24 7.48995e-05
38 *227:67 *258:24 0.000127044
*RES
1 *1163:Q *258:24 36.04 
2 *258:24 *978:A 36.825 
3 *258:24 *1109:A0 3.6 
*END

*D_NET *259 0.0159804
*CONN
*I *1009:A2 I *D sky130_fd_sc_hd__o21a_1
*I *1111:A0 I *D sky130_fd_sc_hd__mux2_1
*I *1164:Q O *D sky130_fd_sc_hd__dfxtp_1
*CAP
1 *1009:A2 0.00127522
2 *1111:A0 0.00166803
3 *1164:Q 0.000486397
4 *259:14 0.00342965
5 *1009:A2 *1041:A0 2.08692e-05
6 *1009:A2 *261:14 0.000312446
7 *1009:A2 *269:26 0.000728348
8 *1111:A0 *269:26 0.000412155
9 *259:14 *1113:A0 4.77757e-05
10 *259:14 *269:26 9.48273e-05
11 *972:A1 *1009:A2 1.88656e-05
12 *978:A *1111:A0 0.000158991
13 *981:A2 *1111:A0 0.000951746
14 *992:B1 *1111:A0 0.000856493
15 *1006:A1 *1009:A2 0.000131138
16 *1009:B1 *1009:A2 1.56428e-05
17 *1011:A2 *1111:A0 0.000325235
18 *1024:B *259:14 6.22079e-05
19 *1025:A3 *1009:A2 4.41127e-05
20 *1025:B1 *1009:A2 1.07792e-05
21 *1028:A1 *1111:A0 6.41407e-05
22 *1028:C1 *1111:A0 0.000104716
23 *1034:A2 *1111:A0 0
24 *1039:B1 *1009:A2 6.27378e-05
25 *1052:B2 *259:14 0.000112387
26 *1056:A2 *1009:A2 6.60041e-05
27 *1071:B_N *1111:A0 4.66108e-05
28 *1072:B *1111:A0 0.000448605
29 *1099:B *1111:A0 3.59356e-05
30 *1111:A1 *1111:A0 0.00025328
31 *1111:S *1111:A0 0.000154986
32 *1122:A1 *1111:A0 0
33 *1126:A1 *1111:A0 1.05613e-05
34 *1131:A *1009:A2 4.12356e-05
35 *1158:D *1009:A2 4.09857e-05
36 *1164:CLK *259:14 2.62526e-05
37 *1181:D *1111:A0 0.000418229
38 *1181:D *259:14 0.000238974
39 *1187:A *1009:A2 0.000224128
40 *64:68 *259:14 5.77833e-05
41 *77:145 *259:14 0.000409007
42 *95:73 *1009:A2 1.51394e-05
43 *120:39 *1111:A0 0.000671201
44 *134:10 *1111:A0 2.0187e-05
45 *167:18 *1111:A0 0.000155508
46 *169:35 *1111:A0 0.000127154
47 *198:24 *259:14 0.000664903
48 *236:73 *259:14 7.39548e-05
49 *247:18 *1009:A2 0.000220504
50 *258:24 *1111:A0 0.000164404
*RES
1 *1164:Q *259:14 14.0492 
2 *259:14 *1111:A0 31.6754 
3 *259:14 *1009:A2 12.5448 
*END

*D_NET *260 0.0132062
*CONN
*I *1005:B I *D sky130_fd_sc_hd__or3_2
*I *1113:A0 I *D sky130_fd_sc_hd__mux2_1
*I *1165:Q O *D sky130_fd_sc_hd__dfxtp_1
*CAP
1 *1005:B 0.000270782
2 *1113:A0 0.00104782
3 *1165:Q 0.000156509
4 *260:40 0.00212114
5 *260:8 0.00150061
6 *940:A *1113:A0 4.7672e-05
7 *967:A *1005:B 0.000182914
8 *967:A *260:40 0.000359709
9 *988:A *260:40 0.000513746
10 *992:A1 *260:40 9.83106e-05
11 *992:B1 *260:40 0.000119242
12 *1004:A1 *260:40 3.29217e-05
13 *1004:B1 *260:40 3.6227e-05
14 *1006:A3 *1005:B 0.000179966
15 *1006:A3 *260:40 0.000294682
16 *1044:B *260:40 0.000129457
17 *1051:A1 *260:40 1.7211e-05
18 *1052:B2 *1113:A0 2.67661e-05
19 *1057:A *1005:B 0.000175071
20 *1057:A *260:40 0.000249928
21 *1059:A *1113:A0 5.29896e-05
22 *1153:A *260:40 5.75434e-05
23 *1154:A *260:40 0.000118081
24 *1163:D *260:40 0.000327195
25 *1164:CLK *1113:A0 0.000255491
26 *1165:D *260:8 7.1067e-05
27 *1167:CLK *1113:A0 0.000747012
28 *1182:RESET_B *260:40 0.000437323
29 *1191:A *260:40 0
30 *82:12 *1113:A0 0.000381867
31 *112:18 *1005:B 5.79555e-05
32 *118:63 *260:40 0.000120655
33 *127:51 *1113:A0 0.00127877
34 *135:10 *260:40 0.000118081
35 *180:43 *260:40 0
36 *198:24 *1113:A0 6.90435e-05
37 *206:18 *260:40 0.00115853
38 *216:14 *1113:A0 0.000346165
39 *259:14 *1113:A0 4.77757e-05
*RES
1 *1165:Q *260:8 5.43 
2 *260:8 *260:40 44.24 
3 *260:40 *1113:A0 30.02 
4 *260:8 *1005:B 13.375 
*END

*D_NET *261 0.0116915
*CONN
*I *1055:A2 I *D sky130_fd_sc_hd__o31a_1
*I *1115:A0 I *D sky130_fd_sc_hd__mux2_1
*I *1166:Q O *D sky130_fd_sc_hd__dfxtp_1
*CAP
1 *1055:A2 0.00121879
2 *1115:A0 0.000490807
3 *1166:Q 0.000708135
4 *261:14 0.00241773
5 *1055:A2 *1144:A0 0.000355555
6 *959:A1 *1055:A2 0.000156436
7 *959:A1 *261:14 2.53892e-05
8 *959:B1 *1055:A2 6.18118e-05
9 *965:A *261:14 2.53191e-06
10 *984:B *1115:A0 8.7152e-06
11 *1009:A2 *261:14 0.000312446
12 *1022:B2 *1115:A0 0.000525429
13 *1022:B2 *261:14 1.88602e-05
14 *1032:A1 *261:14 0.000159365
15 *1039:B1 *261:14 0.000789039
16 *1055:A1 *1055:A2 4.60584e-05
17 *1055:A3 *1055:A2 4.99619e-05
18 *1055:B1 *1055:A2 0.00137715
19 *1056:A2 *261:14 5.69248e-06
20 *1056:C1 *1055:A2 8.35679e-05
21 *1075:A2 *1055:A2 6.72143e-05
22 *1097:B2 *1055:A2 7.16743e-05
23 *1097:B2 *261:14 0.000238879
24 *1107:S *1115:A0 0.000249567
25 *1142:C *1055:A2 0.000169842
26 *1152:A1 *1115:A0 0.000520043
27 *81:28 *1115:A0 0.000525429
28 *108:18 *1055:A2 3.16057e-06
29 *108:18 *261:14 1.95698e-05
30 *119:46 *261:14 0.000116948
31 *123:22 *261:14 0.000237344
32 *146:32 *1055:A2 0
33 *167:38 *1055:A2 9.9848e-05
34 *168:49 *1055:A2 0.000420975
35 *170:43 *261:14 0.00013757
*RES
1 *1166:Q *261:14 20.1375 
2 *261:14 *1115:A0 12.0612 
3 *261:14 *1055:A2 30.6525 
*END

*D_NET *262 0.0117963
*CONN
*I *973:A1 I *D sky130_fd_sc_hd__a21o_1
*I *1085:A0 I *D sky130_fd_sc_hd__mux2_1
*I *1157:Q O *D sky130_fd_sc_hd__dfxtp_1
*CAP
1 *973:A1 0.00156874
2 *1085:A0 0.000384455
3 *1157:Q 0.000650937
4 *262:12 0.00260413
5 *985:B1 *262:12 7.9642e-06
6 *1005:C *973:A1 0.000495443
7 *1020:B *973:A1 0.00135415
8 *1027:A *1085:A0 0.000238691
9 *1071:A *262:12 6.87434e-05
10 *1078:A2 *973:A1 0.000502538
11 *1078:A3 *973:A1 4.77757e-05
12 *1078:B1 *973:A1 0.000524799
13 *1176:D *973:A1 1.43717e-05
14 *99:43 *1085:A0 0.000402194
15 *116:60 *973:A1 0.00018663
16 *123:6 *973:A1 0.000155601
17 *123:22 *262:12 6.88204e-05
18 *126:10 *1085:A0 1.03592e-05
19 *126:22 *1085:A0 0.000123698
20 *129:28 *1085:A0 0.000796968
21 *237:53 *973:A1 0.000552263
22 *237:53 *262:12 0.000851213
23 *251:6 *973:A1 5.85128e-05
24 *251:16 *973:A1 3.93101e-05
25 *257:14 *973:A1 8.79512e-05
*RES
1 *1157:Q *262:12 14.51 
2 *262:12 *1085:A0 16.505 
3 *262:12 *973:A1 32.245 
*END

*D_NET *263 0.0183939
*CONN
*I *1087:A0 I *D sky130_fd_sc_hd__mux2_1
*I *986:A1 I *D sky130_fd_sc_hd__a21o_1
*I *999:A1 I *D sky130_fd_sc_hd__a21oi_1
*I *1158:Q O *D sky130_fd_sc_hd__dfxtp_1
*CAP
1 *1087:A0 0.000269023
2 *986:A1 0.000714022
3 *999:A1 8.76357e-05
4 *1158:Q 0.000820486
5 *263:50 0.00336368
6 *263:18 0.00365153
7 *1087:A0 *1089:A0 0
8 *1087:A0 *1098:A1 9.58678e-06
9 *263:50 *975:C 0.00108066
10 *946:A *1087:A0 7.91708e-05
11 *946:A *263:18 3.83194e-05
12 *957:A *263:50 1.83182e-05
13 *972:B1 *263:50 0.000649448
14 *982:A *263:18 0.000121659
15 *986:B1 *986:A1 0.000146753
16 *986:B1 *999:A1 9.80032e-06
17 *986:B1 *263:50 2.73058e-05
18 *987:B1 *986:A1 0.000594005
19 *999:A2 *999:A1 3.09774e-05
20 *999:B1 *999:A1 3.80003e-05
21 *1023:S *263:50 8.48404e-05
22 *1041:A1 *263:50 1.95991e-05
23 *1054:B *1087:A0 0.000319919
24 *1056:B1 *1087:A0 7.60607e-05
25 *1070:B1 *263:18 4.8854e-05
26 *1099:B *1087:A0 1.92979e-05
27 *1143:A *986:A1 6.43122e-05
28 *1153:A *263:50 0.000867188
29 *1176:D *263:50 2.38557e-05
30 *1178:D *263:50 0.000971965
31 *50:18 *263:50 0.00060759
32 *56:26 *263:50 4.36573e-06
33 *64:32 *263:50 7.46418e-05
34 *81:72 *263:50 0.000148823
35 *104:10 *263:18 0.000155601
36 *108:49 *263:50 0.000400502
37 *113:16 *263:50 0.000167484
38 *121:18 *263:18 0.000193129
39 *124:38 *999:A1 2.16538e-05
40 *138:32 *999:A1 6.4155e-05
41 *167:38 *1087:A0 0.000153816
42 *167:38 *263:18 0.00133385
43 *174:29 *263:50 0.000610932
44 *198:28 *263:50 1.74629e-05
45 *201:80 *263:18 8.34281e-06
46 *201:90 *263:18 0.00010409
47 *208:8 *263:18 2.82797e-05
48 *218:20 *1087:A0 5.28642e-05
*RES
1 *1158:Q *263:18 18.79 
2 *263:18 *263:50 31.1519 
3 *263:50 *999:A1 4.18 
4 *263:50 *986:A1 11.485 
5 *263:18 *1087:A0 12.29 
*END

*D_NET *264 0.00873547
*CONN
*I *1089:A0 I *D sky130_fd_sc_hd__mux2_1
*I *1022:A1_N I *D sky130_fd_sc_hd__a2bb2o_2
*I *1159:Q O *D sky130_fd_sc_hd__dfxtp_1
*CAP
1 *1089:A0 0.00193765
2 *1022:A1_N 1.01771e-05
3 *1159:Q 0.000100536
4 *264:10 0.00204836
5 *1089:A0 *1054:A 5.06382e-06
6 *1089:A0 *1098:A1 8.09537e-06
7 *1015:A *1089:A0 0.000362857
8 *1087:A0 *1089:A0 0
9 *1089:A1 *1089:A0 7.08554e-05
10 *1090:A *1089:A0 9.12494e-06
11 *1099:B *1089:A0 0.000529056
12 *1142:C *1089:A0 2.3234e-05
13 *1183:D *1089:A0 0
14 *110:53 *1022:A1_N 2.87433e-05
15 *145:75 *1089:A0 0.000165632
16 *145:75 *264:10 0.000125719
17 *146:32 *1089:A0 5.64397e-05
18 *161:32 *264:10 4.77757e-05
19 *168:49 *1089:A0 7.43097e-05
20 *170:43 *1022:A1_N 1.54111e-05
21 *174:57 *1089:A0 7.7637e-05
22 *174:73 *1089:A0 0.000615409
23 *174:73 *264:10 0.000125719
24 *185:63 *1089:A0 0.00219747
25 *211:26 *1089:A0 0.000100208
*RES
1 *1159:Q *264:10 5.685 
2 *264:10 *1022:A1_N 3.8775 
3 *264:10 *1089:A0 21.3507 
*END

*D_NET *265 0.0200424
*CONN
*I *1041:A0 I *D sky130_fd_sc_hd__mux2_1
*I *1091:A0 I *D sky130_fd_sc_hd__mux2_1
*I *1160:Q O *D sky130_fd_sc_hd__dfxtp_1
*CAP
1 *1041:A0 0.00316464
2 *1091:A0 0.00111401
3 *1160:Q 0.000389844
4 *265:16 0.00466849
5 *956:A *1041:A0 2.44346e-05
6 *956:A *265:16 2.26234e-05
7 *981:A1 *265:16 3.64998e-06
8 *981:A2 *265:16 1.98547e-06
9 *981:A3 *1091:A0 0.000185953
10 *981:B1 *265:16 4.77273e-05
11 *998:A *1041:A0 0.00021409
12 *1009:A2 *1041:A0 2.08692e-05
13 *1023:A0 *265:16 9.22294e-06
14 *1026:A0 *265:16 7.96104e-06
15 *1032:B1 *1041:A0 0.000164886
16 *1041:A1 *1041:A0 0.00207258
17 *1056:A1 *1041:A0 7.89148e-05
18 *1062:B1 *1041:A0 0.000178939
19 *1080:B *1041:A0 7.81994e-05
20 *1081:A *1041:A0 0.000146688
21 *1090:A *1091:A0 0
22 *1131:A *1041:A0 0.00265858
23 *1131:A *1091:A0 3.92756e-05
24 *1154:A *1041:A0 0.000172721
25 *1156:A *1091:A0 4.66108e-05
26 *1183:RESET_B *265:16 0
27 *1185:A *1041:A0 0.000278666
28 *19:16 *1091:A0 0.00153201
29 *42:14 *1091:A0 0.00159745
30 *64:32 *1041:A0 4.27512e-05
31 *71:14 *1041:A0 7.92674e-05
32 *95:18 *1041:A0 2.87472e-05
33 *95:18 *265:16 9.26907e-06
34 *112:41 *1041:A0 6.72143e-05
35 *120:26 *265:16 2.58731e-05
36 *178:18 *1041:A0 3.71402e-05
37 *191:34 *1091:A0 4.77757e-05
38 *210:28 *1041:A0 0.000307096
39 *218:20 *1041:A0 4.77769e-05
40 *221:43 *1091:A0 0.000271718
41 *233:41 *1041:A0 4.40094e-05
42 *233:41 *265:16 7.1189e-06
43 *234:16 *1041:A0 7.98262e-05
44 *238:39 *1091:A0 0
45 *239:39 *1091:A0 2.29568e-05
46 *249:33 *265:16 0
47 *255:83 *265:16 2.86265e-06
*RES
1 *1160:Q *265:16 8.1349 
2 *265:16 *1091:A0 24.5134 
3 *265:16 *1041:A0 15.5628 
*END

*D_NET *266 0.0213285
*CONN
*I *1098:A1 I *D sky130_fd_sc_hd__o21ai_2
*I *1103:A0 I *D sky130_fd_sc_hd__mux2_1
*I *1161:Q O *D sky130_fd_sc_hd__dfxtp_1
*CAP
1 *1098:A1 0.0036991
2 *1103:A0 0.00177239
3 *1161:Q 6.27541e-05
4 *266:10 0.00553424
5 *1098:A1 *1054:A 0.000801811
6 *1098:A1 *271:43 0.000144302
7 *981:A3 *1103:A0 0.000587562
8 *1014:B *1098:A1 0.000160538
9 *1016:B1 *1103:A0 1.92979e-05
10 *1023:S *1103:A0 3.92756e-05
11 *1041:A1 *1103:A0 0.000179818
12 *1052:B2 *1098:A1 2.22315e-05
13 *1056:B1 *1098:A1 1.92979e-05
14 *1062:B1 *1098:A1 0.00113463
15 *1087:A0 *1098:A1 9.58678e-06
16 *1089:A0 *1098:A1 8.09537e-06
17 *1090:A *1103:A0 0.000141042
18 *1099:B *1098:A1 0.00368923
19 *1103:A1 *1103:A0 2.49909e-05
20 *1120:A0 *266:10 4.8854e-05
21 *1124:A1 *1103:A0 0.000717335
22 *1142:B *1098:A1 0
23 *1142:B *1103:A0 9.55096e-05
24 *1145:A *1098:A1 6.28389e-05
25 *1145:A *1103:A0 0.000813731
26 *1183:D *1098:A1 0.000177347
27 *83:20 *1098:A1 6.99847e-05
28 *109:40 *1103:A0 0.000338635
29 *153:24 *1098:A1 0.000234183
30 *154:18 *1098:A1 2.20023e-05
31 *211:26 *1098:A1 0.000367158
32 *215:12 *1103:A0 1.79536e-05
33 *221:43 *1103:A0 0.000202315
34 *239:39 *1103:A0 0.000110508
*RES
1 *1161:Q *266:10 4.755 
2 *266:10 *1103:A0 20.6111 
3 *266:10 *1098:A1 19.4167 
*END

*D_NET *267 0.0136465
*CONN
*I *952:B_N I *D sky130_fd_sc_hd__and4bb_1
*I *1144:A0 I *D sky130_fd_sc_hd__mux2_1
*I *1177:Q O *D sky130_fd_sc_hd__dfxtp_1
*CAP
1 *952:B_N 0
2 *1144:A0 0.00149319
3 *1177:Q 0.00195573
4 *267:26 0.00344892
5 *939:A *267:26 0.000119216
6 *950:B *1144:A0 8.51746e-05
7 *952:D *267:26 4.66108e-05
8 *953:C1 *267:26 0.000156758
9 *1020:A *267:26 0.000354339
10 *1022:B1 *267:26 4.8203e-06
11 *1041:A1 *267:26 7.06222e-05
12 *1041:S *267:26 8.71087e-05
13 *1054:B *1144:A0 5.43506e-05
14 *1055:A2 *1144:A0 0.000355555
15 *1055:B1 *1144:A0 0.000355555
16 *1056:C1 *267:26 0.00130907
17 *1079:A2 *1144:A0 5.83121e-06
18 *1097:A2 *267:26 7.97096e-05
19 *1098:B1 *267:26 0.000157401
20 *1120:A0 *1144:A0 9.12494e-06
21 *1124:A1 *1144:A0 7.00426e-05
22 *77:55 *1144:A0 0.000733142
23 *78:16 *267:26 8.23457e-05
24 *81:12 *267:26 1.92979e-05
25 *84:26 *267:26 0.000165384
26 *84:38 *267:26 0.000928067
27 *93:37 *1144:A0 0.000159998
28 *97:22 *1144:A0 4.28819e-05
29 *122:8 *1144:A0 1.1392e-05
30 *127:51 *267:26 0
31 *155:98 *267:26 0.000213624
32 *201:100 *1144:A0 5.96871e-05
33 *208:81 *267:26 0.000270137
34 *235:31 *267:26 0.00010903
35 *235:60 *267:26 0.000632357
*RES
1 *1177:Q *267:26 46.835 
2 *267:26 *1144:A0 30.54 
3 *267:26 *952:B_N 1.6 
*END

*D_NET *268 0.00788004
*CONN
*I *1146:A0 I *D sky130_fd_sc_hd__mux2_1
*I *975:C I *D sky130_fd_sc_hd__and4b_1
*I *1178:Q O *D sky130_fd_sc_hd__dfxtp_1
*CAP
1 *1146:A0 0.000401901
2 *975:C 0.00101067
3 *1178:Q 0
4 *268:6 0.00141257
5 *935:A *1146:A0 8.68964e-06
6 *957:A *975:C 2.08904e-05
7 *972:B2 *975:C 7.60474e-05
8 *976:C1 *975:C 8.4627e-05
9 *1041:A1 *975:C 4.2145e-05
10 *1069:A *1146:A0 0.000263972
11 *1074:B1 *1146:A0 0.000191335
12 *1099:A *975:C 6.78535e-05
13 *1117:A *975:C 8.6777e-06
14 *1117:C *975:C 0.000109207
15 *1118:A *975:C 0.000806344
16 *1178:D *975:C 0.000163882
17 *1178:D *1146:A0 6.72143e-05
18 *64:32 *975:C 7.56727e-05
19 *77:131 *975:C 0.000136921
20 *77:145 *975:C 5.91231e-05
21 *81:72 *975:C 0.000148385
22 *83:94 *1146:A0 8.94747e-05
23 *84:46 *975:C 2.48804e-05
24 *112:18 *1146:A0 0.000663023
25 *174:6 *1146:A0 0.000357296
26 *198:28 *975:C 0.00031618
27 *198:28 *1146:A0 0.000180396
28 *237:53 *1146:A0 1.19928e-05
29 *263:50 *975:C 0.00108066
*RES
1 *1178:Q *268:6 3.6 
2 *268:6 *975:C 24.8585 
3 *268:6 *1146:A0 15.075 
*END

*D_NET *269 0.019305
*CONN
*I *1148:A0 I *D sky130_fd_sc_hd__mux2_1
*I *1007:C I *D sky130_fd_sc_hd__and4b_1
*I *1179:Q O *D sky130_fd_sc_hd__dfxtp_1
*CAP
1 *1148:A0 0.00191678
2 *1007:C 3.13543e-05
3 *1179:Q 0.00385895
4 *269:26 0.00580708
5 *1148:A0 *1054:A 0
6 *946:A *1148:A0 4.21127e-05
7 *952:D *1148:A0 8.89938e-05
8 *953:C1 *1148:A0 0.000144389
9 *1006:A1 *269:26 9.20565e-05
10 *1009:A2 *269:26 0.000728348
11 *1011:A1 *269:26 3.56951e-05
12 *1011:A2 *269:26 5.41395e-05
13 *1020:A *1148:A0 0
14 *1023:S *269:26 0.00019175
15 *1027:B *269:26 0.000776434
16 *1038:B *1148:A0 0.000710064
17 *1044:B *269:26 0.000110612
18 *1048:A *1148:A0 4.23528e-05
19 *1076:B1 *269:26 0.000555741
20 *1078:A3 *1148:A0 0
21 *1111:A0 *269:26 0.000412155
22 *1164:D *269:26 0.000983521
23 *1181:D *269:26 7.90846e-05
24 *49:45 *269:26 0.000221908
25 *64:32 *1007:C 4.09223e-05
26 *64:68 *269:26 0.000256678
27 *83:10 *1148:A0 0.000228621
28 *83:20 *1148:A0 5.78621e-05
29 *83:30 *1007:C 2.05641e-05
30 *83:61 *1007:C 1.88656e-05
31 *84:83 *269:26 0.000234661
32 *95:73 *269:26 0.00069596
33 *97:22 *1148:A0 3.87762e-05
34 *141:18 *1148:A0 2.92733e-05
35 *155:34 *269:26 0.000121238
36 *157:30 *269:26 0.000237414
37 *166:26 *269:26 7.9642e-06
38 *168:20 *1148:A0 4.09223e-05
39 *178:18 *1148:A0 0.000119649
40 *178:18 *269:26 5.03114e-05
41 *204:28 *1148:A0 0.000103315
42 *252:54 *1007:C 2.36561e-05
43 *259:14 *269:26 9.48273e-05
*RES
1 *1179:Q *269:26 45.7184 
2 *269:26 *1007:C 4.89963 
3 *269:26 *1148:A0 14.4928 
*END

*D_NET *270 0.0138441
*CONN
*I *1150:A0 I *D sky130_fd_sc_hd__mux2_1
*I *1003:C I *D sky130_fd_sc_hd__and4b_1
*I *1180:Q O *D sky130_fd_sc_hd__dfxtp_1
*CAP
1 *1150:A0 0
2 *1003:C 0.00122116
3 *1180:Q 0.00193371
4 *270:30 0.00158072
5 *270:28 0.00229327
6 *959:A3 *270:28 0.000168789
7 *987:A1 *270:28 0.000676299
8 *987:A2 *270:28 9.26334e-05
9 *1011:A2 *1003:C 0.000109275
10 *1018:A *1003:C 0.000507113
11 *1025:A1 *1003:C 5.48747e-05
12 *1039:A1 *1003:C 0.000228228
13 *1085:A1 *270:30 0.000119866
14 *1088:A *1003:C 0.000163759
15 *1132:A *270:28 1.34687e-05
16 *1142:C *270:28 6.90254e-05
17 *1180:D *270:28 0.00135042
18 *32:60 *270:28 0.000151072
19 *98:42 *270:28 7.73646e-05
20 *103:32 *270:28 6.74241e-05
21 *145:47 *1003:C 0.000105558
22 *145:75 *1003:C 8.23457e-05
23 *167:18 *270:28 0.000251994
24 *171:40 *1003:C 0.000106199
25 *185:63 *270:28 0.00145097
26 *201:16 *270:30 0.00018046
27 *201:33 *270:28 0
28 *218:20 *1003:C 0.000162402
29 *248:23 *1003:C 2.5195e-05
30 *255:83 *270:28 0.000489614
31 *258:24 *1003:C 4.66108e-05
32 *258:24 *270:28 5.18208e-05
33 *258:24 *270:30 1.24601e-05
*RES
1 *1180:Q *270:28 49.86 
2 *270:28 *270:30 4.245 
3 *270:30 *1003:C 23.54 
4 *270:30 *1150:A0 1.6 
*END

*D_NET *271 0.0218404
*CONN
*I *1054:A I *D sky130_fd_sc_hd__or2_1
*I *1152:A0 I *D sky130_fd_sc_hd__mux2_1
*I *1014:A I *D sky130_fd_sc_hd__nor2_1
*I *1181:Q O *D sky130_fd_sc_hd__dfxtp_1
*CAP
1 *1054:A 0.00108929
2 *1152:A0 0.000252204
3 *1014:A 3.04497e-05
4 *1181:Q 0.00122031
5 *271:43 0.00236096
6 *271:24 0.00227022
7 *968:A *271:43 7.18107e-06
8 *968:B *271:43 2.76356e-05
9 *969:A *271:43 0.000418377
10 *977:A_N *1054:A 4.41506e-05
11 *1014:B *1054:A 7.67415e-05
12 *1014:B *271:43 0.00135926
13 *1015:C *271:43 0.000522412
14 *1020:A *1054:A 7.56599e-05
15 *1023:S *271:24 0.000123275
16 *1040:A0 *271:24 0.00125563
17 *1052:B2 *271:24 0.000517234
18 *1061:A2 *271:24 0.000174934
19 *1062:B1 *1054:A 0.000148223
20 *1076:A3 *271:24 1.33205e-05
21 *1089:A0 *1054:A 5.06382e-06
22 *1098:A1 *1054:A 0.000801811
23 *1098:A1 *271:43 0.000144302
24 *1103:S *271:24 0.000116952
25 *1107:A1 *1054:A 2.7835e-05
26 *1107:S *1054:A 3.63253e-05
27 *1107:S *1152:A0 0.000447046
28 *1148:A0 *1054:A 0
29 *1148:S *1152:A0 0.000210893
30 *1156:A *271:24 0.000403294
31 *30:14 *1054:A 4.68514e-05
32 *50:18 *1054:A 0.00107399
33 *58:28 *271:43 0.000184652
34 *83:20 *1054:A 0.000526617
35 *106:65 *271:43 0.000320066
36 *106:80 *271:43 9.12671e-06
37 *116:8 *1054:A 0.000562371
38 *153:6 *271:43 0.000167877
39 *173:32 *271:24 0.000114889
40 *174:45 *1054:A 0.000167776
41 *174:73 *1054:A 2.5424e-05
42 *201:90 *1054:A 0
43 *201:100 *1054:A 0.000193129
44 *201:100 *271:43 0.00112039
45 *208:81 *1054:A 5.8023e-05
46 *208:81 *271:43 0.00038206
47 *211:26 *271:24 0.000476575
48 *229:22 *271:24 0
49 *236:194 *1054:A 0.000182253
50 *236:194 *271:43 0.000414702
51 *238:12 *271:24 0.0016326
*RES
1 *1181:Q *271:24 42.5395 
2 *271:24 *1014:A 2.05 
3 *271:24 *271:43 33.99 
4 *271:43 *1152:A0 11.315 
5 *271:43 *1054:A 26.0699 
*END
