*SPEF "ieee 1481-1999"
*DESIGN "TopZeroToFive"
*DATE "10:40:27 Sunday May 25, 2025"
*VENDOR "The OpenROAD Project"
*PROGRAM "OpenROAD"
*VERSION "b16bda7e82721d10566ff7e2b68f1ff0be9f9e38"
*DESIGN_FLOW "NAME_SCOPE LOCAL" "PIN_CAP NONE"
*DIVIDER /
*DELIMITER :
*BUS_DELIMITER []
*T_UNIT 1 NS
*C_UNIT 1 PF
*R_UNIT 1 OHM
*L_UNIT 1 HENRY

*NAME_MAP
*3 net9
*4 net10
*5 net11
*6 net12
*7 net13
*8 net14
*9 net15
*10 net16
*11 btnC
*12 clk
*13 seg[0]
*14 seg[1]
*15 seg[2]
*16 seg[3]
*17 seg[4]
*18 seg[5]
*19 seg[6]
*20 _000_
*21 _001_
*22 _002_
*23 _003_
*24 _004_
*25 _005_
*26 _006_
*27 _007_
*28 _008_
*29 _009_
*30 _010_
*31 _011_
*32 _012_
*33 _013_
*34 _014_
*35 _015_
*36 _016_
*37 _017_
*38 _018_
*39 _019_
*40 _020_
*41 _021_
*42 _022_
*43 _023_
*44 _024_
*45 _025_
*46 _026_
*47 _027_
*48 _028_
*49 _029_
*50 _030_
*51 _031_
*52 _032_
*53 _033_
*54 _034_
*55 _035_
*56 _036_
*57 _037_
*58 _038_
*59 _039_
*60 _040_
*61 _041_
*62 _042_
*63 _043_
*64 _044_
*65 _045_
*66 _046_
*67 _047_
*68 _048_
*69 _049_
*70 _050_
*71 _051_
*72 _052_
*73 _053_
*74 _054_
*75 _055_
*76 _056_
*77 _057_
*78 _058_
*79 _059_
*80 _060_
*81 _061_
*82 _062_
*83 clknet_0_clk
*84 clknet_1_0__leaf_clk
*85 clknet_1_1__leaf_clk
*86 div_cntr\[0\]
*87 div_cntr\[10\]
*88 div_cntr\[11\]
*89 div_cntr\[12\]
*90 div_cntr\[13\]
*91 div_cntr\[14\]
*92 div_cntr\[15\]
*93 div_cntr\[16\]
*94 div_cntr\[17\]
*95 div_cntr\[18\]
*96 div_cntr\[1\]
*97 div_cntr\[2\]
*98 div_cntr\[3\]
*99 div_cntr\[4\]
*100 div_cntr\[5\]
*101 div_cntr\[6\]
*102 div_cntr\[7\]
*103 div_cntr\[8\]
*104 div_cntr\[9\]
*105 net1
*106 net17
*107 net2
*108 net3
*109 net4
*110 net5
*111 net6
*112 net7
*113 net8
*114 u_cnt\.clk
*115 u_cnt\.count\[0\]
*116 u_cnt\.count\[1\]
*117 u_cnt\.count\[2\]
*118 u_cnt\.count\[3\]
*119 ANTENNA_1
*120 ANTENNA_2
*121 FILLER_0_0_109
*122 FILLER_0_0_113
*123 FILLER_0_0_128
*124 FILLER_0_0_141
*125 FILLER_0_0_15
*126 FILLER_0_0_153
*127 FILLER_0_0_165
*128 FILLER_0_0_169
*129 FILLER_0_0_181
*130 FILLER_0_0_189
*131 FILLER_0_0_27
*132 FILLER_0_0_29
*133 FILLER_0_0_3
*134 FILLER_0_0_41
*135 FILLER_0_0_53
*136 FILLER_0_0_57
*137 FILLER_0_0_69
*138 FILLER_0_0_81
*139 FILLER_0_0_85
*140 FILLER_0_0_97
*141 FILLER_0_10_109
*142 FILLER_0_10_121
*143 FILLER_0_10_125
*144 FILLER_0_10_137
*145 FILLER_0_10_141
*146 FILLER_0_10_15
*147 FILLER_0_10_153
*148 FILLER_0_10_165
*149 FILLER_0_10_173
*150 FILLER_0_10_181
*151 FILLER_0_10_189
*152 FILLER_0_10_27
*153 FILLER_0_10_29
*154 FILLER_0_10_3
*155 FILLER_0_10_41
*156 FILLER_0_10_53
*157 FILLER_0_10_65
*158 FILLER_0_10_77
*159 FILLER_0_10_83
*160 FILLER_0_10_85
*161 FILLER_0_10_97
*162 FILLER_0_11_113
*163 FILLER_0_11_148
*164 FILLER_0_11_15
*165 FILLER_0_11_164
*166 FILLER_0_11_169
*167 FILLER_0_11_181
*168 FILLER_0_11_189
*169 FILLER_0_11_27
*170 FILLER_0_11_3
*171 FILLER_0_11_39
*172 FILLER_0_11_51
*173 FILLER_0_11_55
*174 FILLER_0_11_57
*175 FILLER_0_11_69
*176 FILLER_0_11_81
*177 FILLER_0_11_93
*178 FILLER_0_12_109
*179 FILLER_0_12_121
*180 FILLER_0_12_133
*181 FILLER_0_12_139
*182 FILLER_0_12_141
*183 FILLER_0_12_15
*184 FILLER_0_12_163
*185 FILLER_0_12_175
*186 FILLER_0_12_187
*187 FILLER_0_12_27
*188 FILLER_0_12_29
*189 FILLER_0_12_3
*190 FILLER_0_12_37
*191 FILLER_0_12_47
*192 FILLER_0_12_59
*193 FILLER_0_12_71
*194 FILLER_0_12_83
*195 FILLER_0_12_85
*196 FILLER_0_12_97
*197 FILLER_0_13_104
*198 FILLER_0_13_113
*199 FILLER_0_13_138
*200 FILLER_0_13_150
*201 FILLER_0_13_162
*202 FILLER_0_13_169
*203 FILLER_0_13_175
*204 FILLER_0_13_183
*205 FILLER_0_13_189
*206 FILLER_0_13_24
*207 FILLER_0_13_3
*208 FILLER_0_13_30
*209 FILLER_0_13_39
*210 FILLER_0_13_54
*211 FILLER_0_13_57
*212 FILLER_0_13_64
*213 FILLER_0_13_68
*214 FILLER_0_13_7
*215 FILLER_0_13_72
*216 FILLER_0_13_84
*217 FILLER_0_13_96
*218 FILLER_0_14_113
*219 FILLER_0_14_125
*220 FILLER_0_14_132
*221 FILLER_0_14_141
*222 FILLER_0_14_153
*223 FILLER_0_14_165
*224 FILLER_0_14_177
*225 FILLER_0_14_189
*226 FILLER_0_14_23
*227 FILLER_0_14_27
*228 FILLER_0_14_29
*229 FILLER_0_14_3
*230 FILLER_0_14_41
*231 FILLER_0_14_53
*232 FILLER_0_14_57
*233 FILLER_0_14_81
*234 FILLER_0_14_85
*235 FILLER_0_15_105
*236 FILLER_0_15_111
*237 FILLER_0_15_113
*238 FILLER_0_15_125
*239 FILLER_0_15_137
*240 FILLER_0_15_149
*241 FILLER_0_15_15
*242 FILLER_0_15_161
*243 FILLER_0_15_167
*244 FILLER_0_15_169
*245 FILLER_0_15_181
*246 FILLER_0_15_189
*247 FILLER_0_15_27
*248 FILLER_0_15_3
*249 FILLER_0_15_39
*250 FILLER_0_15_51
*251 FILLER_0_15_55
*252 FILLER_0_15_57
*253 FILLER_0_15_69
*254 FILLER_0_15_81
*255 FILLER_0_15_93
*256 FILLER_0_16_109
*257 FILLER_0_16_115
*258 FILLER_0_16_132
*259 FILLER_0_16_141
*260 FILLER_0_16_15
*261 FILLER_0_16_153
*262 FILLER_0_16_165
*263 FILLER_0_16_177
*264 FILLER_0_16_189
*265 FILLER_0_16_27
*266 FILLER_0_16_29
*267 FILLER_0_16_3
*268 FILLER_0_16_41
*269 FILLER_0_16_53
*270 FILLER_0_16_65
*271 FILLER_0_16_77
*272 FILLER_0_16_83
*273 FILLER_0_16_85
*274 FILLER_0_16_97
*275 FILLER_0_17_101
*276 FILLER_0_17_109
*277 FILLER_0_17_113
*278 FILLER_0_17_125
*279 FILLER_0_17_137
*280 FILLER_0_17_149
*281 FILLER_0_17_160
*282 FILLER_0_17_169
*283 FILLER_0_17_17
*284 FILLER_0_17_181
*285 FILLER_0_17_189
*286 FILLER_0_17_29
*287 FILLER_0_17_3
*288 FILLER_0_17_41
*289 FILLER_0_17_53
*290 FILLER_0_17_57
*291 FILLER_0_17_69
*292 FILLER_0_17_77
*293 FILLER_0_17_89
*294 FILLER_0_17_9
*295 FILLER_0_18_109
*296 FILLER_0_18_121
*297 FILLER_0_18_129
*298 FILLER_0_18_137
*299 FILLER_0_18_141
*300 FILLER_0_18_153
*301 FILLER_0_18_165
*302 FILLER_0_18_177
*303 FILLER_0_18_189
*304 FILLER_0_18_29
*305 FILLER_0_18_3
*306 FILLER_0_18_41
*307 FILLER_0_18_53
*308 FILLER_0_18_65
*309 FILLER_0_18_74
*310 FILLER_0_18_82
*311 FILLER_0_18_85
*312 FILLER_0_18_97
*313 FILLER_0_19_108
*314 FILLER_0_19_113
*315 FILLER_0_19_125
*316 FILLER_0_19_137
*317 FILLER_0_19_149
*318 FILLER_0_19_15
*319 FILLER_0_19_153
*320 FILLER_0_19_160
*321 FILLER_0_19_164
*322 FILLER_0_19_169
*323 FILLER_0_19_181
*324 FILLER_0_19_189
*325 FILLER_0_19_27
*326 FILLER_0_19_3
*327 FILLER_0_19_39
*328 FILLER_0_19_51
*329 FILLER_0_19_55
*330 FILLER_0_19_57
*331 FILLER_0_19_69
*332 FILLER_0_19_96
*333 FILLER_0_1_113
*334 FILLER_0_1_125
*335 FILLER_0_1_133
*336 FILLER_0_1_141
*337 FILLER_0_1_15
*338 FILLER_0_1_157
*339 FILLER_0_1_165
*340 FILLER_0_1_169
*341 FILLER_0_1_181
*342 FILLER_0_1_189
*343 FILLER_0_1_27
*344 FILLER_0_1_3
*345 FILLER_0_1_34
*346 FILLER_0_1_42
*347 FILLER_0_1_50
*348 FILLER_0_1_57
*349 FILLER_0_1_69
*350 FILLER_0_1_81
*351 FILLER_0_1_87
*352 FILLER_0_1_95
*353 FILLER_0_20_104
*354 FILLER_0_20_133
*355 FILLER_0_20_139
*356 FILLER_0_20_144
*357 FILLER_0_20_15
*358 FILLER_0_20_156
*359 FILLER_0_20_168
*360 FILLER_0_20_180
*361 FILLER_0_20_188
*362 FILLER_0_20_21
*363 FILLER_0_20_27
*364 FILLER_0_20_29
*365 FILLER_0_20_3
*366 FILLER_0_20_41
*367 FILLER_0_20_53
*368 FILLER_0_20_65
*369 FILLER_0_20_77
*370 FILLER_0_20_83
*371 FILLER_0_20_85
*372 FILLER_0_20_97
*373 FILLER_0_21_113
*374 FILLER_0_21_117
*375 FILLER_0_21_135
*376 FILLER_0_21_147
*377 FILLER_0_21_15
*378 FILLER_0_21_159
*379 FILLER_0_21_167
*380 FILLER_0_21_169
*381 FILLER_0_21_181
*382 FILLER_0_21_189
*383 FILLER_0_21_23
*384 FILLER_0_21_28
*385 FILLER_0_21_3
*386 FILLER_0_21_40
*387 FILLER_0_21_52
*388 FILLER_0_21_57
*389 FILLER_0_21_69
*390 FILLER_0_21_81
*391 FILLER_0_21_93
*392 FILLER_0_22_109
*393 FILLER_0_22_121
*394 FILLER_0_22_133
*395 FILLER_0_22_139
*396 FILLER_0_22_141
*397 FILLER_0_22_15
*398 FILLER_0_22_153
*399 FILLER_0_22_165
*400 FILLER_0_22_177
*401 FILLER_0_22_189
*402 FILLER_0_22_27
*403 FILLER_0_22_29
*404 FILLER_0_22_3
*405 FILLER_0_22_41
*406 FILLER_0_22_49
*407 FILLER_0_22_57
*408 FILLER_0_22_68
*409 FILLER_0_22_80
*410 FILLER_0_22_85
*411 FILLER_0_22_97
*412 FILLER_0_23_113
*413 FILLER_0_23_125
*414 FILLER_0_23_137
*415 FILLER_0_23_149
*416 FILLER_0_23_15
*417 FILLER_0_23_169
*418 FILLER_0_23_181
*419 FILLER_0_23_189
*420 FILLER_0_23_22
*421 FILLER_0_23_3
*422 FILLER_0_23_34
*423 FILLER_0_23_46
*424 FILLER_0_23_54
*425 FILLER_0_23_62
*426 FILLER_0_23_74
*427 FILLER_0_23_86
*428 FILLER_0_23_94
*429 FILLER_0_24_109
*430 FILLER_0_24_121
*431 FILLER_0_24_133
*432 FILLER_0_24_139
*433 FILLER_0_24_141
*434 FILLER_0_24_15
*435 FILLER_0_24_153
*436 FILLER_0_24_165
*437 FILLER_0_24_177
*438 FILLER_0_24_189
*439 FILLER_0_24_27
*440 FILLER_0_24_29
*441 FILLER_0_24_3
*442 FILLER_0_24_41
*443 FILLER_0_24_45
*444 FILLER_0_24_70
*445 FILLER_0_24_82
*446 FILLER_0_24_85
*447 FILLER_0_24_97
*448 FILLER_0_25_109
*449 FILLER_0_25_113
*450 FILLER_0_25_125
*451 FILLER_0_25_137
*452 FILLER_0_25_149
*453 FILLER_0_25_15
*454 FILLER_0_25_161
*455 FILLER_0_25_167
*456 FILLER_0_25_169
*457 FILLER_0_25_181
*458 FILLER_0_25_189
*459 FILLER_0_25_27
*460 FILLER_0_25_3
*461 FILLER_0_25_39
*462 FILLER_0_25_51
*463 FILLER_0_25_55
*464 FILLER_0_25_73
*465 FILLER_0_25_85
*466 FILLER_0_25_97
*467 FILLER_0_26_109
*468 FILLER_0_26_115
*469 FILLER_0_26_122
*470 FILLER_0_26_134
*471 FILLER_0_26_141
*472 FILLER_0_26_15
*473 FILLER_0_26_153
*474 FILLER_0_26_165
*475 FILLER_0_26_172
*476 FILLER_0_26_178
*477 FILLER_0_26_182
*478 FILLER_0_26_27
*479 FILLER_0_26_29
*480 FILLER_0_26_3
*481 FILLER_0_26_41
*482 FILLER_0_26_53
*483 FILLER_0_26_65
*484 FILLER_0_26_77
*485 FILLER_0_26_83
*486 FILLER_0_26_85
*487 FILLER_0_26_97
*488 FILLER_0_27_100
*489 FILLER_0_27_108
*490 FILLER_0_27_11
*491 FILLER_0_27_113
*492 FILLER_0_27_127
*493 FILLER_0_27_136
*494 FILLER_0_27_141
*495 FILLER_0_27_148
*496 FILLER_0_27_156
*497 FILLER_0_27_160
*498 FILLER_0_27_17
*499 FILLER_0_27_172
*500 FILLER_0_27_180
*501 FILLER_0_27_184
*502 FILLER_0_27_29
*503 FILLER_0_27_3
*504 FILLER_0_27_40
*505 FILLER_0_27_48
*506 FILLER_0_27_60
*507 FILLER_0_27_64
*508 FILLER_0_27_72
*509 FILLER_0_27_76
*510 FILLER_0_27_88
*511 FILLER_0_27_96
*512 FILLER_0_2_104
*513 FILLER_0_2_116
*514 FILLER_0_2_128
*515 FILLER_0_2_141
*516 FILLER_0_2_15
*517 FILLER_0_2_153
*518 FILLER_0_2_167
*519 FILLER_0_2_171
*520 FILLER_0_2_179
*521 FILLER_0_2_187
*522 FILLER_0_2_27
*523 FILLER_0_2_29
*524 FILLER_0_2_3
*525 FILLER_0_2_41
*526 FILLER_0_2_53
*527 FILLER_0_2_65
*528 FILLER_0_2_77
*529 FILLER_0_2_83
*530 FILLER_0_2_85
*531 FILLER_0_2_94
*532 FILLER_0_3_102
*533 FILLER_0_3_110
*534 FILLER_0_3_113
*535 FILLER_0_3_125
*536 FILLER_0_3_137
*537 FILLER_0_3_141
*538 FILLER_0_3_15
*539 FILLER_0_3_166
*540 FILLER_0_3_185
*541 FILLER_0_3_189
*542 FILLER_0_3_27
*543 FILLER_0_3_3
*544 FILLER_0_3_40
*545 FILLER_0_3_52
*546 FILLER_0_3_57
*547 FILLER_0_3_69
*548 FILLER_0_3_81
*549 FILLER_0_3_90
*550 FILLER_0_4_109
*551 FILLER_0_4_121
*552 FILLER_0_4_133
*553 FILLER_0_4_139
*554 FILLER_0_4_141
*555 FILLER_0_4_146
*556 FILLER_0_4_15
*557 FILLER_0_4_158
*558 FILLER_0_4_170
*559 FILLER_0_4_178
*560 FILLER_0_4_183
*561 FILLER_0_4_189
*562 FILLER_0_4_27
*563 FILLER_0_4_3
*564 FILLER_0_4_45
*565 FILLER_0_4_57
*566 FILLER_0_4_69
*567 FILLER_0_4_81
*568 FILLER_0_4_85
*569 FILLER_0_4_97
*570 FILLER_0_5_102
*571 FILLER_0_5_11
*572 FILLER_0_5_110
*573 FILLER_0_5_113
*574 FILLER_0_5_120
*575 FILLER_0_5_132
*576 FILLER_0_5_144
*577 FILLER_0_5_150
*578 FILLER_0_5_157
*579 FILLER_0_5_165
*580 FILLER_0_5_169
*581 FILLER_0_5_177
*582 FILLER_0_5_183
*583 FILLER_0_5_189
*584 FILLER_0_5_19
*585 FILLER_0_5_3
*586 FILLER_0_5_31
*587 FILLER_0_5_43
*588 FILLER_0_5_53
*589 FILLER_0_5_57
*590 FILLER_0_5_69
*591 FILLER_0_5_73
*592 FILLER_0_5_78
*593 FILLER_0_5_90
*594 FILLER_0_6_117
*595 FILLER_0_6_129
*596 FILLER_0_6_137
*597 FILLER_0_6_141
*598 FILLER_0_6_15
*599 FILLER_0_6_168
*600 FILLER_0_6_180
*601 FILLER_0_6_188
*602 FILLER_0_6_27
*603 FILLER_0_6_29
*604 FILLER_0_6_3
*605 FILLER_0_6_41
*606 FILLER_0_6_53
*607 FILLER_0_6_61
*608 FILLER_0_6_79
*609 FILLER_0_6_83
*610 FILLER_0_6_85
*611 FILLER_0_6_97
*612 FILLER_0_7_101
*613 FILLER_0_7_109
*614 FILLER_0_7_113
*615 FILLER_0_7_125
*616 FILLER_0_7_137
*617 FILLER_0_7_143
*618 FILLER_0_7_15
*619 FILLER_0_7_154
*620 FILLER_0_7_166
*621 FILLER_0_7_169
*622 FILLER_0_7_178
*623 FILLER_0_7_182
*624 FILLER_0_7_27
*625 FILLER_0_7_3
*626 FILLER_0_7_39
*627 FILLER_0_7_51
*628 FILLER_0_7_55
*629 FILLER_0_7_65
*630 FILLER_0_7_77
*631 FILLER_0_7_89
*632 FILLER_0_8_121
*633 FILLER_0_8_133
*634 FILLER_0_8_139
*635 FILLER_0_8_141
*636 FILLER_0_8_15
*637 FILLER_0_8_165
*638 FILLER_0_8_177
*639 FILLER_0_8_189
*640 FILLER_0_8_27
*641 FILLER_0_8_29
*642 FILLER_0_8_3
*643 FILLER_0_8_41
*644 FILLER_0_8_49
*645 FILLER_0_8_85
*646 FILLER_0_8_97
*647 FILLER_0_9_103
*648 FILLER_0_9_107
*649 FILLER_0_9_111
*650 FILLER_0_9_113
*651 FILLER_0_9_125
*652 FILLER_0_9_138
*653 FILLER_0_9_144
*654 FILLER_0_9_148
*655 FILLER_0_9_160
*656 FILLER_0_9_169
*657 FILLER_0_9_17
*658 FILLER_0_9_181
*659 FILLER_0_9_189
*660 FILLER_0_9_29
*661 FILLER_0_9_3
*662 FILLER_0_9_41
*663 FILLER_0_9_53
*664 FILLER_0_9_57
*665 FILLER_0_9_69
*666 FILLER_0_9_81
*667 FILLER_0_9_95
*668 PHY_EDGE_ROW_0_Left_28
*669 PHY_EDGE_ROW_0_Right_0
*670 PHY_EDGE_ROW_10_Left_38
*671 PHY_EDGE_ROW_10_Right_10
*672 PHY_EDGE_ROW_11_Left_39
*673 PHY_EDGE_ROW_11_Right_11
*674 PHY_EDGE_ROW_12_Left_40
*675 PHY_EDGE_ROW_12_Right_12
*676 PHY_EDGE_ROW_13_Left_41
*677 PHY_EDGE_ROW_13_Right_13
*678 PHY_EDGE_ROW_14_Left_42
*679 PHY_EDGE_ROW_14_Right_14
*680 PHY_EDGE_ROW_15_Left_43
*681 PHY_EDGE_ROW_15_Right_15
*682 PHY_EDGE_ROW_16_Left_44
*683 PHY_EDGE_ROW_16_Right_16
*684 PHY_EDGE_ROW_17_Left_45
*685 PHY_EDGE_ROW_17_Right_17
*686 PHY_EDGE_ROW_18_Left_46
*687 PHY_EDGE_ROW_18_Right_18
*688 PHY_EDGE_ROW_19_Left_47
*689 PHY_EDGE_ROW_19_Right_19
*690 PHY_EDGE_ROW_1_Left_29
*691 PHY_EDGE_ROW_1_Right_1
*692 PHY_EDGE_ROW_20_Left_48
*693 PHY_EDGE_ROW_20_Right_20
*694 PHY_EDGE_ROW_21_Left_49
*695 PHY_EDGE_ROW_21_Right_21
*696 PHY_EDGE_ROW_22_Left_50
*697 PHY_EDGE_ROW_22_Right_22
*698 PHY_EDGE_ROW_23_Left_51
*699 PHY_EDGE_ROW_23_Right_23
*700 PHY_EDGE_ROW_24_Left_52
*701 PHY_EDGE_ROW_24_Right_24
*702 PHY_EDGE_ROW_25_Left_53
*703 PHY_EDGE_ROW_25_Right_25
*704 PHY_EDGE_ROW_26_Left_54
*705 PHY_EDGE_ROW_26_Right_26
*706 PHY_EDGE_ROW_27_Left_55
*707 PHY_EDGE_ROW_27_Right_27
*708 PHY_EDGE_ROW_2_Left_30
*709 PHY_EDGE_ROW_2_Right_2
*710 PHY_EDGE_ROW_3_Left_31
*711 PHY_EDGE_ROW_3_Right_3
*712 PHY_EDGE_ROW_4_Left_32
*713 PHY_EDGE_ROW_4_Right_4
*714 PHY_EDGE_ROW_5_Left_33
*715 PHY_EDGE_ROW_5_Right_5
*716 PHY_EDGE_ROW_6_Left_34
*717 PHY_EDGE_ROW_6_Right_6
*718 PHY_EDGE_ROW_7_Left_35
*719 PHY_EDGE_ROW_7_Right_7
*720 PHY_EDGE_ROW_8_Left_36
*721 PHY_EDGE_ROW_8_Right_8
*722 PHY_EDGE_ROW_9_Left_37
*723 PHY_EDGE_ROW_9_Right_9
*724 TAP_TAPCELL_ROW_0_56
*725 TAP_TAPCELL_ROW_0_57
*726 TAP_TAPCELL_ROW_0_58
*727 TAP_TAPCELL_ROW_0_59
*728 TAP_TAPCELL_ROW_0_60
*729 TAP_TAPCELL_ROW_0_61
*730 TAP_TAPCELL_ROW_10_89
*731 TAP_TAPCELL_ROW_10_90
*732 TAP_TAPCELL_ROW_10_91
*733 TAP_TAPCELL_ROW_11_92
*734 TAP_TAPCELL_ROW_11_93
*735 TAP_TAPCELL_ROW_11_94
*736 TAP_TAPCELL_ROW_12_95
*737 TAP_TAPCELL_ROW_12_96
*738 TAP_TAPCELL_ROW_12_97
*739 TAP_TAPCELL_ROW_13_100
*740 TAP_TAPCELL_ROW_13_98
*741 TAP_TAPCELL_ROW_13_99
*742 TAP_TAPCELL_ROW_14_101
*743 TAP_TAPCELL_ROW_14_102
*744 TAP_TAPCELL_ROW_14_103
*745 TAP_TAPCELL_ROW_15_104
*746 TAP_TAPCELL_ROW_15_105
*747 TAP_TAPCELL_ROW_15_106
*748 TAP_TAPCELL_ROW_16_107
*749 TAP_TAPCELL_ROW_16_108
*750 TAP_TAPCELL_ROW_16_109
*751 TAP_TAPCELL_ROW_17_110
*752 TAP_TAPCELL_ROW_17_111
*753 TAP_TAPCELL_ROW_17_112
*754 TAP_TAPCELL_ROW_18_113
*755 TAP_TAPCELL_ROW_18_114
*756 TAP_TAPCELL_ROW_18_115
*757 TAP_TAPCELL_ROW_19_116
*758 TAP_TAPCELL_ROW_19_117
*759 TAP_TAPCELL_ROW_19_118
*760 TAP_TAPCELL_ROW_1_62
*761 TAP_TAPCELL_ROW_1_63
*762 TAP_TAPCELL_ROW_1_64
*763 TAP_TAPCELL_ROW_20_119
*764 TAP_TAPCELL_ROW_20_120
*765 TAP_TAPCELL_ROW_20_121
*766 TAP_TAPCELL_ROW_21_122
*767 TAP_TAPCELL_ROW_21_123
*768 TAP_TAPCELL_ROW_21_124
*769 TAP_TAPCELL_ROW_22_125
*770 TAP_TAPCELL_ROW_22_126
*771 TAP_TAPCELL_ROW_22_127
*772 TAP_TAPCELL_ROW_23_128
*773 TAP_TAPCELL_ROW_23_129
*774 TAP_TAPCELL_ROW_23_130
*775 TAP_TAPCELL_ROW_24_131
*776 TAP_TAPCELL_ROW_24_132
*777 TAP_TAPCELL_ROW_24_133
*778 TAP_TAPCELL_ROW_25_134
*779 TAP_TAPCELL_ROW_25_135
*780 TAP_TAPCELL_ROW_25_136
*781 TAP_TAPCELL_ROW_26_137
*782 TAP_TAPCELL_ROW_26_138
*783 TAP_TAPCELL_ROW_26_139
*784 TAP_TAPCELL_ROW_27_140
*785 TAP_TAPCELL_ROW_27_141
*786 TAP_TAPCELL_ROW_27_142
*787 TAP_TAPCELL_ROW_27_143
*788 TAP_TAPCELL_ROW_27_144
*789 TAP_TAPCELL_ROW_27_145
*790 TAP_TAPCELL_ROW_2_65
*791 TAP_TAPCELL_ROW_2_66
*792 TAP_TAPCELL_ROW_2_67
*793 TAP_TAPCELL_ROW_3_68
*794 TAP_TAPCELL_ROW_3_69
*795 TAP_TAPCELL_ROW_3_70
*796 TAP_TAPCELL_ROW_4_71
*797 TAP_TAPCELL_ROW_4_72
*798 TAP_TAPCELL_ROW_4_73
*799 TAP_TAPCELL_ROW_5_74
*800 TAP_TAPCELL_ROW_5_75
*801 TAP_TAPCELL_ROW_5_76
*802 TAP_TAPCELL_ROW_6_77
*803 TAP_TAPCELL_ROW_6_78
*804 TAP_TAPCELL_ROW_6_79
*805 TAP_TAPCELL_ROW_7_80
*806 TAP_TAPCELL_ROW_7_81
*807 TAP_TAPCELL_ROW_7_82
*808 TAP_TAPCELL_ROW_8_83
*809 TAP_TAPCELL_ROW_8_84
*810 TAP_TAPCELL_ROW_8_85
*811 TAP_TAPCELL_ROW_9_86
*812 TAP_TAPCELL_ROW_9_87
*813 TAP_TAPCELL_ROW_9_88
*814 TopZeroToFive_10
*815 TopZeroToFive_11
*816 TopZeroToFive_12
*817 TopZeroToFive_13
*818 TopZeroToFive_14
*819 TopZeroToFive_15
*820 TopZeroToFive_16
*821 TopZeroToFive_9
*822 _063_
*823 _064_
*824 _065_
*825 _066_
*826 _067_
*827 _068_
*828 _069_
*829 _070_
*830 _071_
*831 _072_
*832 _073_
*833 _074_
*834 _075_
*835 _076_
*836 _077_
*837 _078_
*838 _079_
*839 _080_
*840 _081_
*841 _082_
*842 _083_
*843 _084_
*844 _085_
*845 _086_
*846 _087_
*847 _088_
*848 _089_
*849 _090_
*850 _091_
*851 _092_
*852 _093_
*853 _094_
*854 _095_
*855 _096_
*856 _097_
*857 _098_
*858 _099_
*859 _100_
*860 _101_
*861 _102_
*862 _103_
*863 _104_
*864 _105_
*865 _106_
*866 _107_
*867 _108_
*868 _109_
*869 _110_
*870 _111_
*871 _112_
*872 _113_
*873 _114_
*874 _115_
*875 _116_
*876 _117_
*877 _118_
*878 _119_
*879 _120_
*880 _121_
*881 _122_
*882 _123_
*883 _124_
*884 _125_
*885 _126_
*886 _127_
*887 _128_
*888 _129_
*889 _130_
*890 _131_
*891 _132_
*892 _133_
*893 _134_
*894 _135_
*895 _136_
*896 _137_
*897 _138_
*898 _139_
*899 _140_
*900 _141_
*901 _142_
*902 _143_
*903 _144_
*904 _145_
*905 _146_
*906 _147_
*907 _148_
*908 _149_
*909 _150_
*910 _151_
*911 _152_
*912 _153_
*913 _154_
*914 _155_
*915 _164_
*916 clkbuf_0_clk
*917 clkbuf_1_0__f_clk
*918 clkbuf_1_1__f_clk
*919 clkload0
*920 hold1
*921 input1
*922 output2
*923 output3
*924 output4
*925 output5
*926 output6
*927 output7
*928 output8

*PORTS
an[0] O
an[1] O
an[2] O
an[3] O
an[4] O
an[5] O
an[6] O
an[7] O
btnC I
clk I
seg[0] O
seg[1] O
seg[2] O
seg[3] O
seg[4] O
seg[5] O
seg[6] O

*D_NET *3 0.00104229
*CONN
*P an[0] O
*I *821:LO O *D sky130_fd_sc_hd__conb_1
*CAP
1 an[0] 0.000521145
2 *821:LO 0.000521145
*RES
1 *821:LO an[0] 12.57 
*END

*D_NET *4 0.00115199
*CONN
*P an[1] O
*I *814:HI O *D sky130_fd_sc_hd__conb_1
*CAP
1 an[1] 0.000575995
2 *814:HI 0.000575995
3 an[1] an[2] 0
*RES
1 *814:HI an[1] 12.96 
*END

*D_NET *5 0.000915133
*CONN
*P an[2] O
*I *815:HI O *D sky130_fd_sc_hd__conb_1
*CAP
1 an[2] 0.000457567
2 *815:HI 0.000457567
3 an[1] an[2] 0
*RES
1 *815:HI an[2] 11.37 
*END

*D_NET *6 0.000927355
*CONN
*P an[3] O
*I *816:HI O *D sky130_fd_sc_hd__conb_1
*CAP
1 an[3] 0.000448658
2 *816:HI 0.000448658
3 an[3] *823:C 3.00381e-05
*RES
1 *816:HI an[3] 11.37 
*END

*D_NET *7 0.000927355
*CONN
*P an[4] O
*I *817:HI O *D sky130_fd_sc_hd__conb_1
*CAP
1 an[4] 0.000448658
2 *817:HI 0.000448658
3 an[4] *116:53 3.00381e-05
*RES
1 *817:HI an[4] 11.37 
*END

*D_NET *8 0.000927355
*CONN
*P an[5] O
*I *818:HI O *D sky130_fd_sc_hd__conb_1
*CAP
1 an[5] 0.000448658
2 *818:HI 0.000448658
3 an[5] *116:53 3.00381e-05
*RES
1 *818:HI an[5] 11.37 
*END

*D_NET *9 0.000947836
*CONN
*P an[6] O
*I *819:HI O *D sky130_fd_sc_hd__conb_1
*CAP
1 an[6] 0.000449453
2 *819:HI 0.000449453
3 an[6] *826:B 4.89295e-05
*RES
1 *819:HI an[6] 11.37 
*END

*D_NET *10 0.000944893
*CONN
*P an[7] O
*I *820:HI O *D sky130_fd_sc_hd__conb_1
*CAP
1 an[7] 0.000447466
2 *820:HI 0.000447466
3 an[7] *826:B 4.99619e-05
*RES
1 *820:HI an[7] 11.37 
*END

*D_NET *11 0.000959783
*CONN
*P btnC I
*I *921:A I *D sky130_fd_sc_hd__buf_2
*CAP
1 btnC 0.000479892
2 *921:A 0.000479892
*RES
1 btnC *921:A 11.88 
*END

*D_NET *12 0.0117446
*CONN
*P clk I
*I *916:A I *D sky130_fd_sc_hd__clkbuf_16
*CAP
1 clk 0.00585807
2 *916:A 0.00585807
3 *916:A *67:27 1.88602e-05
4 *916:A *117:16 9.5799e-06
*RES
1 clk *916:A 29.3339 
*END

*D_NET *13 0.000944893
*CONN
*P seg[0] O
*I *922:X O *D sky130_fd_sc_hd__buf_1
*CAP
1 seg[0] 0.000447466
2 *922:X 0.000447466
3 seg[0] *826:B 4.99619e-05
*RES
1 *922:X seg[0] 11.37 
*END

*D_NET *14 0.000946294
*CONN
*P seg[1] O
*I *923:X O *D sky130_fd_sc_hd__buf_1
*CAP
1 seg[1] 0.000448166
2 *923:X 0.000448166
3 seg[1] seg[2] 0
4 seg[1] *826:B 4.99619e-05
*RES
1 *923:X seg[1] 11.37 
*END

*D_NET *15 0.00118554
*CONN
*P seg[2] O
*I *924:X O *D sky130_fd_sc_hd__buf_1
*CAP
1 seg[2] 0.000549549
2 *924:X 0.000549549
3 seg[2] *826:B 8.64421e-05
4 seg[1] seg[2] 0
*RES
1 *924:X seg[2] 14.19 
*END

*D_NET *16 0.000944893
*CONN
*P seg[3] O
*I *925:X O *D sky130_fd_sc_hd__buf_1
*CAP
1 seg[3] 0.000447466
2 *925:X 0.000447466
3 seg[3] *826:B 4.99619e-05
*RES
1 *925:X seg[3] 11.37 
*END

*D_NET *17 0.00153979
*CONN
*P seg[4] O
*I *926:X O *D sky130_fd_sc_hd__buf_1
*CAP
1 seg[4] 0.000661642
2 *926:X 0.000661642
3 seg[4] *826:A 1.33293e-05
4 seg[4] *826:B 0.000203178
*RES
1 *926:X seg[4] 14.13 
*END

*D_NET *18 0.000915133
*CONN
*P seg[5] O
*I *927:X O *D sky130_fd_sc_hd__buf_1
*CAP
1 seg[5] 0.000457567
2 *927:X 0.000457567
*RES
1 *927:X seg[5] 11.37 
*END

*D_NET *19 0.000915133
*CONN
*P seg[6] O
*I *928:X O *D sky130_fd_sc_hd__buf_1
*CAP
1 seg[6] 0.000457567
2 *928:X 0.000457567
*RES
1 *928:X seg[6] 11.37 
*END

*D_NET *20 0.00212045
*CONN
*I *911:D I *D sky130_fd_sc_hd__dfrtp_4
*I *825:X O *D sky130_fd_sc_hd__o21ba_1
*CAP
1 *911:D 0.000288815
2 *825:X 0.000288815
3 *911:D *825:B1_N 4.77769e-05
4 *911:D *875:C 0.0003967
5 *911:D *878:A2 0.000175889
6 *911:D *914:D 0.000140272
7 *911:D *91:29 0.000228238
8 *911:D *104:10 0.000553941
*RES
1 *825:X *911:D 17.955 
*END

*D_NET *21 0.0177752
*CONN
*I *912:D I *D sky130_fd_sc_hd__dfrtp_4
*I *119:DIODE I *D sky130_fd_sc_hd__diode_2
*I *826:X O *D sky130_fd_sc_hd__xor2_1
*CAP
1 *912:D 0.000164603
2 *119:DIODE 0
3 *826:X 0.0067161
4 *21:26 0.0068807
5 *912:D *829:B 7.27639e-05
6 *912:D *830:A 8.52972e-05
7 *21:26 *830:A 8.41703e-06
8 *21:26 *844:A 0.000364538
9 *21:26 *854:A 0.000111044
10 *21:26 *880:C 0.000114678
11 *21:26 *894:D 0.000711536
12 *21:26 *899:D 0.000381565
13 *21:26 *902:D 0.000216972
14 *21:26 *926:A 0
15 *21:26 *52:8 0.00061284
16 *21:26 *54:8 0.000523025
17 *21:26 *57:27 1.92979e-05
18 *21:26 *102:37 0.000287222
19 *21:26 *111:12 0.000504609
*RES
1 *826:X *21:26 22.1038 
2 *21:26 *119:DIODE 1.6 
3 *21:26 *912:D 4.585 
*END

*D_NET *22 0.0118279
*CONN
*I *913:D I *D sky130_fd_sc_hd__dfrtp_4
*I *830:X O *D sky130_fd_sc_hd__buf_1
*CAP
1 *913:D 0.000688949
2 *830:X 0.00339598
3 *22:8 0.00408493
4 *913:D *856:A 0.000130714
5 *913:D *894:CLK 8.34493e-05
6 *913:D *894:D 0
7 *913:D *101:10 0.00136055
8 *22:8 *840:A 0.000225718
9 *22:8 *846:A 0.00022759
10 *22:8 *875:C 0.000423642
11 *22:8 *875:D 4.46055e-05
12 *22:8 *880:B 0.000198939
13 *22:8 *880:C 0.000640803
14 *22:8 *86:27 0.000195839
15 *22:8 *86:34 0.000126181
*RES
1 *830:X *22:8 45.45 
2 *22:8 *913:D 21.045 
*END

*D_NET *23 0.00479751
*CONN
*I *914:D I *D sky130_fd_sc_hd__dfrtp_4
*I *831:Y O *D sky130_fd_sc_hd__xnor2_1
*CAP
1 *914:D 0.000878906
2 *831:Y 0.000878906
3 *914:D *825:B1_N 4.77769e-05
4 *914:D *828:A2 0.000342602
5 *914:D *831:B 0.000526409
6 *914:D *861:A1 8.25851e-05
7 *914:D *875:C 0.000388736
8 *914:D *876:C 9.05592e-05
9 *914:D *914:CLK 0.000159179
10 *914:D *64:8 4.05358e-05
11 *914:D *91:29 0.000758229
12 *914:D *114:20 0.00031864
13 *914:D *114:22 0.000144172
14 *911:D *914:D 0.000140272
*RES
1 *831:Y *914:D 32.82 
*END

*D_NET *24 0.00226024
*CONN
*I *891:D I *D sky130_fd_sc_hd__dfxtp_2
*I *840:Y O *D sky130_fd_sc_hd__inv_2
*CAP
1 *891:D 0.00075908
2 *840:Y 0.00075908
3 *891:D *891:CLK 1.43717e-05
4 *891:D *86:27 0.000161837
5 *891:D *86:34 0.000388836
6 *891:D *88:10 0.00016163
7 *891:D *89:8 1.54049e-05
8 *891:D *108:12 0
*RES
1 *840:Y *891:D 17.9587 
*END

*D_NET *25 0.00482905
*CONN
*I *901:D I *D sky130_fd_sc_hd__dfxtp_1
*I *864:X O *D sky130_fd_sc_hd__xor2_1
*CAP
1 *901:D 0.00143593
2 *864:X 0.00143593
3 *901:D *853:A2 0.000593191
4 *901:D *864:B 4.89395e-05
5 *901:D *898:CLK 0.000558067
6 *901:D *898:D 0
7 *901:D *927:A 0
8 *901:D *84:106 0.000104021
9 *901:D *102:16 0.000652959
*RES
1 *864:X *901:D 38.49 
*END

*D_NET *26 0.00736081
*CONN
*I *902:D I *D sky130_fd_sc_hd__dfxtp_1
*I *868:X O *D sky130_fd_sc_hd__o21ba_1
*CAP
1 *902:D 0.00146411
2 *868:X 0.00146411
3 *902:D *852:B 0.00031231
4 *902:D *853:B1 0.000179579
5 *902:D *877:B 0.000204456
6 *902:D *902:CLK 4.77757e-05
7 *902:D *926:A 7.40925e-05
8 *902:D *40:12 0
9 *902:D *51:60 0.000312778
10 *902:D *84:10 4.31106e-05
11 *902:D *84:12 0.000151353
12 *902:D *84:16 0.000916659
13 *902:D *84:18 7.63476e-05
14 *902:D *101:8 0.000128917
15 *902:D *111:12 0.00176823
16 *21:26 *902:D 0.000216972
*RES
1 *868:X *902:D 46.515 
*END

*D_NET *27 0.00241166
*CONN
*I *903:D I *D sky130_fd_sc_hd__dfxtp_1
*I *871:Y O *D sky130_fd_sc_hd__nor2_1
*CAP
1 *903:D 0.000837192
2 *871:Y 0.000837192
3 *903:D *875:A 0.000514637
4 *903:D *878:A2 5.95694e-05
5 *903:D *903:CLK 0.000121019
6 *903:D *116:38 4.20483e-05
*RES
1 *871:Y *903:D 20.6437 
*END

*D_NET *28 0.00800611
*CONN
*I *904:D I *D sky130_fd_sc_hd__dfxtp_1
*I *873:X O *D sky130_fd_sc_hd__o21ba_1
*CAP
1 *904:D 0.000695833
2 *873:X 0.00138584
3 *28:12 0.00208167
4 *904:D *904:CLK 0.000110161
5 *28:12 *839:A1 1.41095e-05
6 *28:12 *839:A2 0.000691771
7 *28:12 *843:A 0.000473655
8 *28:12 *873:A2 0.000162688
9 *28:12 *873:B1_N 0.000199043
10 *28:12 *882:A 0.000139779
11 *28:12 *884:B 0.00030319
12 *28:12 *33:12 0
13 *28:12 *90:24 0.000183895
14 *28:12 *98:14 0.000132821
15 *28:12 *111:12 0.00068296
16 *28:12 *117:16 0.000748692
*RES
1 *873:X *28:12 41.63 
2 *28:12 *904:D 10.5588 
*END

*D_NET *29 0.0025677
*CONN
*I *905:D I *D sky130_fd_sc_hd__dfxtp_1
*I *874:X O *D sky130_fd_sc_hd__xor2_1
*CAP
1 *905:D 0.00104844
2 *874:X 0.00104844
3 *905:D *846:A 6.61232e-05
4 *905:D *847:A 4.82863e-05
5 *905:D *871:A 0.0001249
6 *905:D *894:D 0
7 *905:D *900:D 0
8 *905:D *34:10 0
9 *905:D *91:8 3.16915e-05
10 *905:D *115:14 0.000132454
11 *905:D *115:51 6.73578e-05
*RES
1 *874:X *905:D 22.425 
*END

*D_NET *30 0.0032494
*CONN
*I *906:D I *D sky130_fd_sc_hd__dfxtp_1
*I *878:X O *D sky130_fd_sc_hd__o21ba_1
*CAP
1 *906:D 0.000341385
2 *878:X 0.000341385
3 *906:D *878:A1 0.000401906
4 *906:D *878:B1_N 0.000422984
5 *906:D *885:C 0.000935736
6 *906:D *886:B 0.000349102
7 *906:D *906:CLK 0.000456907
*RES
1 *878:X *906:D 17.3337 
*END

*D_NET *31 0.00391247
*CONN
*I *907:D I *D sky130_fd_sc_hd__dfxtp_1
*I *879:X O *D sky130_fd_sc_hd__xor2_1
*CAP
1 *907:D 0.00123865
2 *879:X 0.00123865
3 *907:D *842:A 0.00046668
4 *907:D *859:A2 0.000138968
5 *907:D *877:D 0
6 *907:D *880:B 0
7 *907:D *81:10 0.000535186
8 *907:D *81:23 5.06374e-05
9 *907:D *84:65 0.000243691
10 *907:D *101:10 0
*RES
1 *879:X *907:D 34.3088 
*END

*D_NET *32 0.0151278
*CONN
*I *908:D I *D sky130_fd_sc_hd__dfxtp_1
*I *883:X O *D sky130_fd_sc_hd__buf_1
*CAP
1 *908:D 0.00383623
2 *883:X 0.00383623
3 *908:D *830:A 0.000472759
4 *908:D *857:B 0.000614604
5 *908:D *876:B 3.9141e-05
6 *908:D *881:A2 0.00015969
7 *908:D *893:D 8.35157e-05
8 *908:D *894:D 0.00354869
9 *908:D *908:CLK 0.000122325
10 *908:D *57:27 1.7635e-05
11 *908:D *62:12 0.00149932
12 *908:D *69:10 0.000250794
13 *908:D *69:22 7.70938e-05
14 *908:D *85:12 9.65637e-05
15 *908:D *85:88 0.000294781
16 *908:D *94:23 0.000132456
17 *908:D *100:10 9.47962e-06
18 *908:D *100:24 3.6451e-05
19 *908:D *114:20 0
*RES
1 *883:X *908:D 48.8335 
*END

*D_NET *33 0.00596342
*CONN
*I *909:D I *D sky130_fd_sc_hd__dfxtp_1
*I *884:Y O *D sky130_fd_sc_hd__xnor2_1
*CAP
1 *909:D 0
2 *884:Y 0.00251972
3 *33:12 0.00251972
4 *33:12 *835:C 0
5 *33:12 *836:A 6.29313e-05
6 *33:12 *842:B 0
7 *33:12 *843:A 0
8 *33:12 *848:B1 0
9 *33:12 *868:A2 0
10 *33:12 *882:A 0.000139757
11 *33:12 *884:B 0.000567479
12 *33:12 *909:CLK 7.82691e-05
13 *33:12 *81:38 0
14 *33:12 *96:32 0
15 *33:12 *98:14 4.4495e-05
16 *33:12 *105:33 3.10498e-05
17 *28:12 *33:12 0
*RES
1 *884:Y *33:12 49.01 
2 *33:12 *909:D 1.6 
*END

*D_NET *34 0.00693771
*CONN
*I *910:D I *D sky130_fd_sc_hd__dfxtp_2
*I *886:X O *D sky130_fd_sc_hd__xor2_1
*CAP
1 *910:D 3.15496e-05
2 *886:X 0.00210878
3 *34:10 0.00214033
4 *910:D *910:CLK 7.82635e-05
5 *34:10 *823:A 0
6 *34:10 *838:B1 0
7 *34:10 *838:C1 0.000179285
8 *34:10 *847:A 0.00013487
9 *34:10 *861:A2 0
10 *34:10 *883:A 0
11 *34:10 *886:A 2.77225e-05
12 *34:10 *888:A 0
13 *34:10 *893:D 0
14 *34:10 *905:CLK 0.000275424
15 *34:10 *912:RESET_B 0.000153891
16 *34:10 *63:18 0
17 *34:10 *85:23 0.000393866
18 *34:10 *85:25 0.000181912
19 *34:10 *115:14 0.000336571
20 *34:10 *115:51 0.00089525
21 *905:D *34:10 0
*RES
1 *886:X *34:10 48.21 
2 *34:10 *910:D 4.32 
*END

*D_NET *35 0.00349347
*CONN
*I *892:D I *D sky130_fd_sc_hd__dfxtp_1
*I *844:X O *D sky130_fd_sc_hd__clkbuf_1
*CAP
1 *892:D 0.000519552
2 *844:X 0.000519552
3 *892:D *868:A1 0.000870923
4 *892:D *51:47 0.000872589
5 *892:D *84:10 0.000197826
6 *892:D *84:65 4.66108e-05
7 *892:D *84:91 0.000332288
8 *892:D *89:46 0.000119762
9 *892:D *112:8 1.43717e-05
*RES
1 *844:X *892:D 23.7038 
*END

*D_NET *36 0.00641056
*CONN
*I *893:D I *D sky130_fd_sc_hd__dfxtp_1
*I *845:Y O *D sky130_fd_sc_hd__xnor2_1
*CAP
1 *893:D 0.00146936
2 *845:Y 0.00146936
3 *893:D *823:A 6.57946e-05
4 *893:D *838:B1 0.000202925
5 *893:D *845:B 0.000749519
6 *893:D *861:A2 6.229e-05
7 *893:D *883:A 0.000528407
8 *893:D *81:55 0.000181651
9 *893:D *97:27 7.22799e-05
10 *893:D *100:24 0.000256692
11 *893:D *115:64 0.000783467
12 *893:D *115:75 0.000485304
13 *908:D *893:D 8.35157e-05
14 *34:10 *893:D 0
*RES
1 *845:Y *893:D 38.4938 
*END

*D_NET *37 0.0168128
*CONN
*I *894:D I *D sky130_fd_sc_hd__dfxtp_1
*I *850:X O *D sky130_fd_sc_hd__buf_1
*CAP
1 *894:D 0.00616321
2 *850:X 0.00616321
3 *894:D *894:CLK 0.000164771
4 *894:D *58:14 6.14024e-05
5 *894:D *93:8 0
6 *894:D *93:18 0
7 *894:D *101:10 0
8 *905:D *894:D 0
9 *908:D *894:D 0.00354869
10 *913:D *894:D 0
11 *21:26 *894:D 0.000711536
*RES
1 *850:X *894:D 38.7057 
*END

*D_NET *38 0.00118799
*CONN
*I *895:D I *D sky130_fd_sc_hd__dfxtp_1
*I *851:X O *D sky130_fd_sc_hd__xor2_1
*CAP
1 *895:D 0.000328257
2 *851:X 0.000328257
3 *895:D *865:A 0
4 *895:D *895:CLK 1.43717e-05
5 *895:D *90:73 0.0005171
*RES
1 *851:X *895:D 13.5638 
*END

*D_NET *39 0.00831776
*CONN
*I *896:D I *D sky130_fd_sc_hd__dfxtp_1
*I *854:Y O *D sky130_fd_sc_hd__nor2_1
*CAP
1 *896:D 0.00208762
2 *854:Y 0.00208762
3 *896:D *846:D 0.000487575
4 *896:D *864:A 0.00218354
5 *896:D *85:12 0.000829846
6 *896:D *87:20 0.000108375
7 *896:D *100:10 0.000378337
8 *896:D *102:37 0.000154863
*RES
1 *854:Y *896:D 46.4888 
*END

*D_NET *40 0.0103301
*CONN
*I *897:D I *D sky130_fd_sc_hd__dfxtp_1
*I *855:X O *D sky130_fd_sc_hd__xor2_1
*CAP
1 *897:D 0.000492005
2 *855:X 0.00183318
3 *40:12 0.00232518
4 *897:D *897:CLK 0.0001111
5 *897:D *88:10 1.7386e-05
6 *897:D *101:8 0.00138723
7 *40:12 *843:B 0.0018537
8 *40:12 *855:B 0.000463286
9 *40:12 *899:D 0.000489184
10 *40:12 *81:23 0.00116692
11 *40:12 *84:12 0
12 *40:12 *84:16 0
13 *40:12 *103:16 7.20529e-05
14 *40:12 *113:10 0.000118901
15 *902:D *40:12 0
*RES
1 *855:X *40:12 45.845 
2 *40:12 *897:D 14.3538 
*END

*D_NET *41 0.00383093
*CONN
*I *898:D I *D sky130_fd_sc_hd__dfxtp_1
*I *859:X O *D sky130_fd_sc_hd__o21ba_1
*CAP
1 *898:D 0.00132174
2 *859:X 0.00132174
3 *898:D *859:A2 0
4 *898:D *927:A 0.000811957
5 *898:D *81:23 0.000375491
6 *901:D *898:D 0
*RES
1 *859:X *898:D 32.7637 
*END

*D_NET *42 0.00485385
*CONN
*I *899:D I *D sky130_fd_sc_hd__dfxtp_1
*I *860:X O *D sky130_fd_sc_hd__xor2_1
*CAP
1 *899:D 0.000941442
2 *860:X 0.000941442
3 *899:D *842:A 1.54049e-05
4 *899:D *854:A 0.000653776
5 *899:D *899:CLK 1.43717e-05
6 *899:D *52:8 0.000864817
7 *899:D *81:23 5.93408e-05
8 *899:D *102:16 0
9 *899:D *102:37 0.000492505
10 *21:26 *899:D 0.000381565
11 *40:12 *899:D 0.000489184
*RES
1 *860:X *899:D 31.1737 
*END

*D_NET *43 0.00194993
*CONN
*I *900:D I *D sky130_fd_sc_hd__dfxtp_1
*I *863:Y O *D sky130_fd_sc_hd__nor2_1
*CAP
1 *900:D 0.000880893
2 *863:Y 0.000880893
3 *900:D *846:C 5.95694e-05
4 *900:D *847:A 0
5 *900:D *863:A 0.000123955
6 *900:D *96:59 4.61701e-06
7 *905:D *900:D 0
*RES
1 *863:Y *900:D 19.3988 
*END

*D_NET *44 0.00573397
*CONN
*I *911:RESET_B I *D sky130_fd_sc_hd__dfrtp_4
*I *887:Y O *D sky130_fd_sc_hd__inv_2
*CAP
1 *911:RESET_B 0.00147182
2 *887:Y 0.00147182
3 *911:RESET_B *843:A 8.52972e-05
4 *911:RESET_B *857:C 0.000309374
5 *911:RESET_B *866:C 0.000131525
6 *911:RESET_B *867:C 0
7 *911:RESET_B *897:CLK 0.000352343
8 *911:RESET_B *911:CLK 5.05521e-05
9 *911:RESET_B *50:8 0
10 *911:RESET_B *51:24 0.000393088
11 *911:RESET_B *74:12 8.33066e-06
12 *911:RESET_B *76:20 0.000565891
13 *911:RESET_B *85:40 0.000529008
14 *911:RESET_B *86:38 9.84937e-05
15 *911:RESET_B *101:8 0.00026643
*RES
1 *887:Y *911:RESET_B 36.6875 
*END

*D_NET *45 0.000733681
*CONN
*I *912:RESET_B I *D sky130_fd_sc_hd__dfrtp_4
*I *888:Y O *D sky130_fd_sc_hd__inv_2
*CAP
1 *912:RESET_B 0.000195975
2 *888:Y 0.000195975
3 *912:RESET_B *888:A 3.78419e-05
4 *912:RESET_B *905:CLK 7.58604e-05
5 *912:RESET_B *91:8 4.2644e-05
6 *912:RESET_B *116:14 3.14932e-05
7 *34:10 *912:RESET_B 0.000153891
*RES
1 *888:Y *912:RESET_B 9.6125 
*END

*D_NET *46 0.00173389
*CONN
*I *913:RESET_B I *D sky130_fd_sc_hd__dfrtp_4
*I *889:Y O *D sky130_fd_sc_hd__inv_2
*CAP
1 *913:RESET_B 0.000826228
2 *889:Y 0.000826228
3 *913:RESET_B *105:12 8.14331e-05
*RES
1 *889:Y *913:RESET_B 18.17 
*END

*D_NET *47 0.00440229
*CONN
*I *914:RESET_B I *D sky130_fd_sc_hd__dfrtp_4
*I *890:Y O *D sky130_fd_sc_hd__inv_2
*CAP
1 *914:RESET_B 0.00121459
2 *890:Y 0.00121459
3 *914:RESET_B *857:A 0
4 *914:RESET_B *895:CLK 0.000196054
5 *914:RESET_B *915:A 0.00106674
6 *914:RESET_B *48:16 7.98007e-06
7 *914:RESET_B *63:18 7.90944e-05
8 *914:RESET_B *76:16 2.65814e-06
9 *914:RESET_B *90:73 0.000620587
10 *914:RESET_B *99:14 0
*RES
1 *890:Y *914:RESET_B 29.825 
*END

*D_NET *48 0.0142092
*CONN
*I *864:B I *D sky130_fd_sc_hd__xor2_1
*I *863:B I *D sky130_fd_sc_hd__nor2_1
*I *862:X O *D sky130_fd_sc_hd__and3_1
*CAP
1 *864:B 0.00105502
2 *863:B 0.00134476
3 *862:X 0.000210721
4 *48:16 0.0026105
5 *863:B *863:A 0.000647304
6 *863:B *875:A 0.000206123
7 *863:B *881:A2 0.000492549
8 *863:B *881:B1 0.00011308
9 *863:B *69:22 0.000551883
10 *863:B *90:10 0.000529946
11 *863:B *90:24 0.000702504
12 *864:B *846:D 0.00103642
13 *864:B *864:A 0.00107053
14 *864:B *53:22 0.00225436
15 *864:B *98:14 0.000380737
16 *48:16 *825:A2 0.00019391
17 *48:16 *857:A 3.76283e-05
18 *48:16 *862:A 0.000157282
19 *48:16 *862:C 1.34503e-05
20 *48:16 *63:18 4.99581e-05
21 *48:16 *69:22 0.000167739
22 *48:16 *90:10 0.000325829
23 *901:D *864:B 4.89395e-05
24 *914:RESET_B *48:16 7.98007e-06
*RES
1 *862:X *48:16 14.23 
2 *48:16 *863:B 35.115 
3 *48:16 *864:B 34.77 
*END

*D_NET *49 0.00384355
*CONN
*I *868:A2 I *D sky130_fd_sc_hd__o21ba_1
*I *865:X O *D sky130_fd_sc_hd__and4_1
*CAP
1 *868:A2 0.001354
2 *865:X 0.001354
3 *868:A2 *848:A1 8.62279e-05
4 *868:A2 *848:A2 0.000136685
5 *868:A2 *848:A3 4.77769e-05
6 *868:A2 *849:A_N 9.15755e-05
7 *868:A2 *868:A1 0.000386504
8 *868:A2 *100:24 0.000119247
9 *868:A2 *105:33 0.00026754
10 *33:12 *868:A2 0
*RES
1 *865:X *868:A2 30.105 
*END

*D_NET *50 0.00665832
*CONN
*I *877:C I *D sky130_fd_sc_hd__and4_2
*I *867:C I *D sky130_fd_sc_hd__and3_1
*I *866:X O *D sky130_fd_sc_hd__and4_1
*CAP
1 *877:C 0.00111147
2 *867:C 0.000539002
3 *866:X 0.000257534
4 *50:8 0.001908
5 *867:C *839:A2 0.000195663
6 *867:C *842:B 0.000173105
7 *867:C *867:A 0.000110422
8 *867:C *76:20 0
9 *867:C *96:32 1.86013e-05
10 *877:C *858:A 0.000122699
11 *877:C *74:85 0.00154619
12 *50:8 *51:24 1.73877e-05
13 *50:8 *86:38 0.000328549
14 *50:8 *96:32 0.000329699
15 *911:RESET_B *867:C 0
16 *911:RESET_B *50:8 0
*RES
1 *866:X *50:8 10.845 
2 *50:8 *867:C 11.9325 
3 *50:8 *877:C 18.885 
*END

*D_NET *51 0.0145847
*CONN
*I *875:D I *D sky130_fd_sc_hd__and4_1
*I *868:B1_N I *D sky130_fd_sc_hd__o21ba_1
*I *872:C I *D sky130_fd_sc_hd__and3_1
*I *869:B I *D sky130_fd_sc_hd__and2_1
*I *870:B I *D sky130_fd_sc_hd__nor2_1
*I *867:X O *D sky130_fd_sc_hd__and3_1
*CAP
1 *875:D 0.000651991
2 *868:B1_N 7.84062e-05
3 *872:C 0.000127118
4 *869:B 0.000147039
5 *870:B 0.000111542
6 *867:X 0.000378767
7 *51:60 0.000313728
8 *51:47 0.00105701
9 *51:24 0.00189132
10 *51:10 0.00200876
11 *869:B *844:A 6.81992e-05
12 *869:B *90:73 3.03684e-05
13 *870:B *870:A 0.00016031
14 *870:B *98:14 3.83194e-05
15 *872:C *869:A 1.83194e-05
16 *872:C *926:A 0.000114492
17 *872:C *102:16 4.41506e-05
18 *875:D *846:A 0.000154665
19 *875:D *875:C 1.4399e-05
20 *51:10 *846:A 0
21 *51:10 *867:A 0.000348912
22 *51:10 *867:B 9.50342e-06
23 *51:10 *903:CLK 0
24 *51:10 *906:CLK 0
25 *51:10 *74:70 0.000270366
26 *51:10 *118:12 4.84472e-05
27 *51:24 *846:A 0.000143827
28 *51:24 *860:A 0.000343398
29 *51:24 *868:A1 0.000156302
30 *51:24 *86:38 0.000191799
31 *51:24 *88:10 3.97106e-05
32 *51:24 *103:16 2.98587e-05
33 *51:24 *103:20 0.001158
34 *51:47 *843:A 0.000324258
35 *51:47 *843:B 0.000152355
36 *51:47 *844:A 4.12084e-05
37 *51:47 *852:A 0.000593322
38 *51:47 *860:A 0.000706435
39 *51:47 *868:A1 0.000365676
40 *51:47 *84:91 5.89332e-05
41 *51:47 *84:106 1.08056e-05
42 *51:47 *90:73 4.79943e-05
43 *51:47 *99:44 0.000137672
44 *51:60 *925:A 0
45 *51:60 *926:A 0.000356583
46 *892:D *51:47 0.000872589
47 *902:D *51:60 0.000312778
48 *911:RESET_B *51:24 0.000393088
49 *22:8 *875:D 4.46055e-05
50 *50:8 *51:24 1.73877e-05
*RES
1 *867:X *51:10 13.865 
2 *51:10 *51:24 28.455 
3 *51:24 *870:B 5.775 
4 *51:24 *51:47 26.765 
5 *51:47 *869:B 4.12 
6 *51:47 *51:60 8.185 
7 *51:60 *872:C 7.94 
8 *51:60 *868:B1_N 2.74 
9 *51:10 *875:D 9.475 
*END

*D_NET *52 0.014803
*CONN
*I *871:A I *D sky130_fd_sc_hd__nor2_1
*I *873:A2 I *D sky130_fd_sc_hd__o21ba_1
*I *869:X O *D sky130_fd_sc_hd__and2_1
*CAP
1 *871:A 0.00252557
2 *873:A2 0.000382197
3 *869:X 0.000956217
4 *52:8 0.00386398
5 *871:A *846:A 2.66586e-05
6 *871:A *874:A 2.49909e-05
7 *871:A *874:B 0.00210177
8 *871:A *877:D 1.91597e-05
9 *871:A *53:22 6.95876e-05
10 *873:A2 *873:A1 0
11 *873:A2 *873:B1_N 0.000316047
12 *873:A2 *90:24 9.95239e-05
13 *873:A2 *102:37 0
14 *52:8 *854:A 6.44959e-05
15 *52:8 *854:B 0
16 *52:8 *873:B1_N 3.09233e-05
17 *52:8 *54:8 0.00255663
18 *52:8 *102:37 0
19 *899:D *52:8 0.000864817
20 *905:D *871:A 0.0001249
21 *21:26 *52:8 0.00061284
22 *28:12 *873:A2 0.000162688
*RES
1 *869:X *52:8 34.05 
2 *52:8 *873:A2 10.695 
3 *52:8 *871:A 38.715 
*END

*D_NET *53 0.0090058
*CONN
*I *871:B I *D sky130_fd_sc_hd__nor2_1
*I *870:Y O *D sky130_fd_sc_hd__nor2_1
*CAP
1 *871:B 0
2 *870:Y 0.0021919
3 *53:22 0.0021919
4 *53:22 *846:A 0.000640638
5 *53:22 *846:D 3.83194e-05
6 *53:22 *857:B 0.000268546
7 *53:22 *861:A1 5.20249e-05
8 *53:22 *874:A 4.66108e-05
9 *53:22 *874:B 0.000244886
10 *53:22 *90:10 0.000561486
11 *53:22 *90:24 0.000337846
12 *53:22 *100:24 6.87667e-05
13 *53:22 *110:16 3.89366e-05
14 *864:B *53:22 0.00225436
15 *871:A *53:22 6.95876e-05
*RES
1 *870:Y *53:22 49.2 
2 *53:22 *871:B 1.6 
*END

*D_NET *54 0.0139148
*CONN
*I *874:B I *D sky130_fd_sc_hd__xor2_1
*I *873:B1_N I *D sky130_fd_sc_hd__o21ba_1
*I *872:X O *D sky130_fd_sc_hd__and3_1
*CAP
1 *874:B 0.000895037
2 *873:B1_N 0.000153422
3 *872:X 0.000786992
4 *54:8 0.00183545
5 *873:B1_N *880:C 4.21314e-05
6 *873:B1_N *57:8 0.000293726
7 *873:B1_N *90:24 0.000187173
8 *874:B *846:A 0.000168536
9 *874:B *858:A 5.63513e-05
10 *874:B *877:B 4.66108e-05
11 *874:B *877:D 0.000118081
12 *874:B *74:85 0.00107958
13 *54:8 *844:A 0.00135789
14 *54:8 *869:A 0
15 *54:8 *880:C 0.000377302
16 *54:8 *926:A 4.33978e-05
17 *54:8 *90:73 4.05358e-05
18 *54:8 *102:16 0
19 *54:8 *111:12 0.000460266
20 *871:A *874:B 0.00210177
21 *873:A2 *873:B1_N 0.000316047
22 *21:26 *54:8 0.000523025
23 *28:12 *873:B1_N 0.000199043
24 *52:8 *873:B1_N 3.09233e-05
25 *52:8 *54:8 0.00255663
26 *53:22 *874:B 0.000244886
*RES
1 *872:X *54:8 35.835 
2 *54:8 *873:B1_N 10.05 
3 *54:8 *874:B 34.065 
*END

*D_NET *55 0.00373022
*CONN
*I *878:A2 I *D sky130_fd_sc_hd__o21ba_1
*I *875:X O *D sky130_fd_sc_hd__and4_1
*CAP
1 *878:A2 0.00114072
2 *875:X 0.00114072
3 *878:A2 *830:A 8.8196e-05
4 *878:A2 *875:C 4.41463e-05
5 *878:A2 *876:C 5.50433e-05
6 *878:A2 *878:A1 6.85749e-05
7 *878:A2 *878:B1_N 4.89395e-05
8 *878:A2 *881:A1 0.000357583
9 *878:A2 *886:B 0.000158564
10 *878:A2 *91:29 0.000206873
11 *878:A2 *104:10 0.000185398
12 *878:A2 *116:38 0
13 *903:D *878:A2 5.95694e-05
14 *911:D *878:A2 0.000175889
*RES
1 *875:X *878:A2 29.04 
*END

*D_NET *56 0.00296651
*CONN
*I *877:D I *D sky130_fd_sc_hd__and4_2
*I *876:X O *D sky130_fd_sc_hd__and4_1
*CAP
1 *877:D 0.000808397
2 *876:X 0.000808397
3 *877:D *858:A 0.000971998
4 *877:D *876:B 0.00024048
5 *877:D *81:10 0
6 *877:D *102:37 0
7 *871:A *877:D 1.91597e-05
8 *874:B *877:D 0.000118081
9 *907:D *877:D 0
*RES
1 *876:X *877:D 25.005 
*END

*D_NET *57 0.0161007
*CONN
*I *880:C I *D sky130_fd_sc_hd__nand3_2
*I *881:A2 I *D sky130_fd_sc_hd__a21o_1
*I *885:D I *D sky130_fd_sc_hd__and4_1
*I *878:B1_N I *D sky130_fd_sc_hd__o21ba_1
*I *879:B I *D sky130_fd_sc_hd__xor2_1
*I *877:X O *D sky130_fd_sc_hd__and4_2
*CAP
1 *880:C 0.000767484
2 *881:A2 0.000142242
3 *885:D 0
4 *878:B1_N 9.40234e-05
5 *879:B 0.00049421
6 *877:X 0
7 *57:27 0.000338111
8 *57:25 0.00124949
9 *57:8 0.00153009
10 *57:6 0.000940206
11 *878:B1_N *857:B 5.00903e-05
12 *878:B1_N *878:A1 0.000499183
13 *878:B1_N *886:B 1.5379e-05
14 *879:B *843:B 0
15 *879:B *93:33 0.000755315
16 *879:B *102:37 0
17 *880:C *880:B 0.000502483
18 *880:C *111:12 0.000420405
19 *881:A2 *857:B 0.0001534
20 *881:A2 *881:B1 0.000492549
21 *57:8 *877:B 6.7449e-05
22 *57:8 *908:CLK 0
23 *57:8 *102:37 0
24 *57:8 *111:12 0.000251588
25 *57:25 *827:A 0.000442616
26 *57:25 *850:A 0.00101487
27 *57:25 *858:B 0.0001249
28 *57:25 *908:CLK 0.000161529
29 *57:25 *80:14 0.0020638
30 *57:25 *94:23 0.00034119
31 *57:27 *830:A 7.88574e-05
32 *57:27 *857:B 0.000479467
33 *863:B *881:A2 0.000492549
34 *873:B1_N *880:C 4.21314e-05
35 *873:B1_N *57:8 0.000293726
36 *878:A2 *878:B1_N 4.89395e-05
37 *906:D *878:B1_N 0.000422984
38 *908:D *881:A2 0.00015969
39 *908:D *57:27 1.7635e-05
40 *21:26 *880:C 0.000114678
41 *21:26 *57:27 1.92979e-05
42 *22:8 *880:C 0.000640803
43 *54:8 *880:C 0.000377302
*RES
1 *877:X *57:6 3.6 
2 *57:6 *57:8 5.205 
3 *57:8 *879:B 13.26 
4 *57:8 *57:25 31.705 
5 *57:25 *57:27 5.97 
6 *57:27 *878:B1_N 8.805 
7 *57:27 *885:D 3.6 
8 *57:25 *881:A2 10.08 
9 *57:6 *880:C 23.145 
*END

*D_NET *58 0.0137231
*CONN
*I *882:A I *D sky130_fd_sc_hd__and2_1
*I *884:B I *D sky130_fd_sc_hd__xnor2_1
*I *880:Y O *D sky130_fd_sc_hd__nand3_2
*CAP
1 *882:A 0.0020849
2 *884:B 0.000524134
3 *880:Y 0.0025697
4 *58:14 0.00517873
5 *882:A *882:B 0.000821427
6 *882:A *915:A 4.89362e-05
7 *882:A *110:16 0.00029002
8 *884:B *828:A1 0.000109423
9 *884:B *828:A2 0.000115351
10 *884:B *839:A1 5.48982e-05
11 *884:B *842:B 0.000117265
12 *884:B *117:16 0
13 *58:14 *842:A 9.61979e-05
14 *58:14 *891:CLK 0.000301921
15 *58:14 *899:CLK 0.000146702
16 *58:14 *89:8 5.18944e-05
17 *58:14 *93:18 0
18 *894:D *58:14 6.14024e-05
19 *28:12 *882:A 0.000139779
20 *28:12 *884:B 0.00030319
21 *33:12 *882:A 0.000139757
22 *33:12 *884:B 0.000567479
*RES
1 *880:Y *58:14 37.375 
2 *58:14 *884:B 18.285 
3 *58:14 *882:A 36.21 
*END

*D_NET *59 0.00313454
*CONN
*I *882:B I *D sky130_fd_sc_hd__and2_1
*I *881:X O *D sky130_fd_sc_hd__a21o_1
*CAP
1 *882:B 0.000745351
2 *881:X 0.000745351
3 *882:B *888:A 0
4 *882:B *116:38 0.00082241
5 *882:A *882:B 0.000821427
*RES
1 *881:X *882:B 24.435 
*END

*D_NET *60 0.00538304
*CONN
*I *883:A I *D sky130_fd_sc_hd__buf_1
*I *882:X O *D sky130_fd_sc_hd__and2_1
*CAP
1 *883:A 0.00122977
2 *882:X 0.00122977
3 *883:A *846:C 0.000481503
4 *883:A *847:A 0
5 *883:A *63:18 0
6 *883:A *97:27 0.00191358
7 *893:D *883:A 0.000528407
8 *34:10 *883:A 0
*RES
1 *882:X *883:A 38.43 
*END

*D_NET *61 0.00282113
*CONN
*I *886:B I *D sky130_fd_sc_hd__xor2_1
*I *885:X O *D sky130_fd_sc_hd__and4_1
*CAP
1 *886:B 0.00113358
2 *885:X 0.00113358
3 *886:B *878:A1 3.0933e-05
4 *878:A2 *886:B 0.000158564
5 *878:B1_N *886:B 1.5379e-05
6 *906:D *886:B 0.000349102
*RES
1 *885:X *886:B 21.015 
*END

*D_NET *62 0.00704858
*CONN
*I *825:A1 I *D sky130_fd_sc_hd__o21ba_1
*I *822:Y O *D sky130_fd_sc_hd__inv_2
*CAP
1 *825:A1 0
2 *822:Y 0.00208344
3 *62:12 0.00208344
4 *62:12 *822:A 4.77757e-05
5 *62:12 *823:A 0.000211757
6 *62:12 *823:B 3.27443e-05
7 *62:12 *825:A2 0.000288351
8 *62:12 *69:10 0.000439053
9 *62:12 *115:77 0.000362698
10 *908:D *62:12 0.00149932
*RES
1 *822:Y *62:12 49.7 
2 *62:12 *825:A1 1.6 
*END

*D_NET *63 0.00719144
*CONN
*I *824:A I *D sky130_fd_sc_hd__clkbuf_2
*I *823:X O *D sky130_fd_sc_hd__or3_1
*CAP
1 *824:A 0.000287274
2 *823:X 0.00288212
3 *63:18 0.00316939
4 *824:A *825:A2 6.41634e-05
5 *824:A *862:A 0.000378906
6 *824:A *918:A 0.000118081
7 *63:18 *822:A 0
8 *63:18 *838:C1 0.000130556
9 *63:18 *857:A 3.1889e-05
10 *883:A *63:18 0
11 *914:RESET_B *63:18 7.90944e-05
12 *34:10 *63:18 0
13 *48:16 *63:18 4.99581e-05
*RES
1 *823:X *63:18 49.665 
2 *63:18 *824:A 6.88 
*END

*D_NET *64 0.00628071
*CONN
*I *829:B I *D sky130_fd_sc_hd__and3_1
*I *831:B I *D sky130_fd_sc_hd__xnor2_1
*I *827:Y O *D sky130_fd_sc_hd__nand3_1
*CAP
1 *829:B 0.000725348
2 *831:B 0.000234038
3 *827:Y 2.33524e-05
4 *64:8 0.000982739
5 *829:B *830:A 0.00100938
6 *829:B *93:33 0.0017136
7 *831:B *828:A2 4.23008e-05
8 *831:B *831:A 0.00060641
9 *831:B *876:C 7.28465e-06
10 *831:B *886:A 0.000156284
11 *831:B *114:22 7.57422e-05
12 *64:8 *114:22 6.45236e-05
13 *912:D *829:B 7.27639e-05
14 *914:D *831:B 0.000526409
15 *914:D *64:8 4.05358e-05
*RES
1 *827:Y *64:8 4.47 
2 *64:8 *831:B 11.88 
3 *64:8 *829:B 25.065 
*END

*D_NET *65 0.000546796
*CONN
*I *829:C I *D sky130_fd_sc_hd__and3_1
*I *828:X O *D sky130_fd_sc_hd__a21o_1
*CAP
1 *829:C 0.000136456
2 *828:X 0.000136456
3 *829:C *832:B1 8.51529e-05
4 *829:C *842:B 1.34618e-05
5 *829:C *67:10 0.000152647
6 *829:C *93:33 1.70906e-05
7 *829:C *108:12 5.53249e-06
*RES
1 *828:X *829:C 9.705 
*END

*D_NET *66 0.00638707
*CONN
*I *830:A I *D sky130_fd_sc_hd__buf_1
*I *829:X O *D sky130_fd_sc_hd__and3_1
*CAP
1 *830:A 0.00190408
2 *829:X 0.00190408
3 *830:A *875:C 0.000233004
4 *830:A *886:A 2.68111e-05
5 *830:A *114:20 0.000295109
6 *830:A *114:22 0.000281085
7 *829:B *830:A 0.00100938
8 *878:A2 *830:A 8.8196e-05
9 *908:D *830:A 0.000472759
10 *912:D *830:A 8.52972e-05
11 *21:26 *830:A 8.41703e-06
12 *57:27 *830:A 7.88574e-05
*RES
1 *829:X *830:A 40.53 
*END

*D_NET *67 0.0124577
*CONN
*I *834:B1 I *D sky130_fd_sc_hd__o31ai_1
*I *833:A I *D sky130_fd_sc_hd__inv_2
*I *839:B1 I *D sky130_fd_sc_hd__o21ai_1
*I *832:Y O *D sky130_fd_sc_hd__o21ai_2
*CAP
1 *834:B1 0
2 *833:A 0.000132913
3 *839:B1 6.02784e-05
4 *832:Y 0.000394274
5 *67:29 0.00038008
6 *67:27 0.00159145
7 *67:10 0.00179884
8 *833:A *112:8 0.00023786
9 *833:A *117:64 0.00013802
10 *833:A *117:71 0.00029599
11 *839:B1 *839:A1 0.000428764
12 *839:B1 *839:A2 0.000428764
13 *67:10 *832:A2 5.2844e-05
14 *67:10 *832:B1 8.23021e-05
15 *67:10 *876:D 1.42674e-05
16 *67:10 *108:12 0.000102839
17 *67:10 *117:16 5.56272e-05
18 *67:10 *117:18 0.0001236
19 *67:27 *843:A 0
20 *67:27 *923:A 0.000894701
21 *67:27 *96:8 0.000686633
22 *67:27 *108:12 0.000576689
23 *67:27 *112:8 0.000732286
24 *67:27 *117:16 0.000864901
25 *67:27 *117:53 5.12859e-05
26 *67:27 *117:64 0.000297576
27 *67:29 *112:8 0.00118823
28 *67:29 *117:64 0.000675219
29 *829:C *67:10 0.000152647
30 *916:A *67:27 1.88602e-05
*RES
1 *832:Y *67:10 12.57 
2 *67:10 *839:B1 7.5 
3 *67:10 *67:27 43.0325 
4 *67:27 *67:29 10.9725 
5 *67:29 *833:A 6.22 
6 *67:29 *834:B1 1.6 
*END

*D_NET *68 0.000789738
*CONN
*I *836:A I *D sky130_fd_sc_hd__clkbuf_1
*I *835:X O *D sky130_fd_sc_hd__or3_1
*CAP
1 *836:A 0.000163098
2 *835:X 0.000163098
3 *836:A *843:A 4.41857e-05
4 *836:A *81:38 4.77807e-05
5 *836:A *100:24 0.000308645
6 *33:12 *836:A 6.29313e-05
*RES
1 *835:X *836:A 11.445 
*END

*D_NET *69 0.0138835
*CONN
*I *838:A2 I *D sky130_fd_sc_hd__a211o_1
*I *839:A2 I *D sky130_fd_sc_hd__o21ai_1
*I *837:Y O *D sky130_fd_sc_hd__inv_2
*CAP
1 *838:A2 0.000287312
2 *839:A2 0.000630337
3 *837:Y 0.00114616
4 *69:22 0.00155301
5 *69:10 0.00235615
6 *838:A2 *113:6 0.000615157
7 *839:A2 *839:A1 0.000127929
8 *839:A2 *867:A 0.000197724
9 *839:A2 *90:24 0.000819989
10 *69:10 *922:A 0.000276057
11 *69:10 *85:123 0
12 *69:10 *100:24 0.000494284
13 *69:22 *857:A 0.00190023
14 *69:22 *875:A 0.000206123
15 *69:22 *904:CLK 1.34594e-05
16 *69:22 *85:88 5.21706e-05
17 *69:22 *85:99 4.20983e-05
18 *69:22 *90:8 8.40213e-05
19 *69:22 *90:10 0.000128875
20 *69:22 *90:24 8.09021e-06
21 *69:22 *100:24 0.000141599
22 *839:B1 *839:A2 0.000428764
23 *863:B *69:22 0.000551883
24 *867:C *839:A2 0.000195663
25 *908:D *69:10 0.000250794
26 *908:D *69:22 7.70938e-05
27 *28:12 *839:A2 0.000691771
28 *48:16 *69:22 0.000167739
29 *62:12 *69:10 0.000439053
*RES
1 *837:Y *69:10 27.585 
2 *69:10 *69:22 33.21 
3 *69:22 *839:A2 20.68 
4 *69:10 *838:A2 9.915 
*END

*D_NET *70 0.0107598
*CONN
*I *845:B I *D sky130_fd_sc_hd__xnor2_1
*I *843:A I *D sky130_fd_sc_hd__and2_1
*I *841:Y O *D sky130_fd_sc_hd__nand2_1
*CAP
1 *845:B 0.00120309
2 *843:A 0.0013066
3 *841:Y 1.42366e-05
4 *70:6 0.00252393
5 *843:A *835:A 2.05571e-05
6 *843:A *835:C 0.000500141
7 *843:A *841:B 1.33799e-05
8 *843:A *843:B 4.66108e-05
9 *843:A *887:A 4.77769e-05
10 *843:A *923:A 0
11 *843:A *74:12 1.08758e-05
12 *843:A *90:73 0.000374195
13 *843:A *96:32 6.9615e-05
14 *843:A *98:14 7.24849e-05
15 *843:A *99:44 0.000313956
16 *843:A *117:16 0.000849503
17 *843:A *117:53 0.000137571
18 *845:B *841:A 6.35751e-05
19 *845:B *845:A 4.8854e-05
20 *845:B *847:A 0.000893793
21 *845:B *918:A 3.46751e-05
22 *845:B *74:6 4.66108e-05
23 *845:B *74:12 0.00014294
24 *845:B *114:18 0.000347943
25 *836:A *843:A 4.41857e-05
26 *893:D *845:B 0.000749519
27 *911:RESET_B *843:A 8.52972e-05
28 *28:12 *843:A 0.000473655
29 *33:12 *843:A 0
30 *51:47 *843:A 0.000324258
31 *67:27 *843:A 0
*RES
1 *841:Y *70:6 1.96 
2 *70:6 *843:A 39.785 
3 *70:6 *845:B 25.87 
*END

*D_NET *71 0.0101901
*CONN
*I *843:B I *D sky130_fd_sc_hd__and2_1
*I *842:X O *D sky130_fd_sc_hd__or2_1
*CAP
1 *843:B 0.00193424
2 *842:X 0.000717505
3 *71:8 0.00265175
4 *843:B *876:A 0
5 *843:B *908:CLK 0
6 *843:B *925:A 0.000799722
7 *843:B *84:91 0
8 *843:B *84:106 0
9 *843:B *86:27 0
10 *843:B *89:21 0
11 *843:B *90:73 2.23477e-05
12 *843:B *110:16 0.00118203
13 *71:8 *876:A 0.00072132
14 *71:8 *876:B 4.89395e-05
15 *71:8 *876:D 5.95938e-05
16 *843:A *843:B 4.66108e-05
17 *879:B *843:B 0
18 *40:12 *843:B 0.0018537
19 *51:47 *843:B 0.000152355
*RES
1 *842:X *71:8 17.16 
2 *71:8 *843:B 47.79 
*END

*D_NET *72 0.0039684
*CONN
*I *844:A I *D sky130_fd_sc_hd__clkbuf_1
*I *843:X O *D sky130_fd_sc_hd__and2_1
*CAP
1 *844:A 0.000518532
2 *843:X 0.000518532
3 *844:A *926:A 0.000320242
4 *844:A *111:12 0.000779249
5 *869:B *844:A 6.81992e-05
6 *21:26 *844:A 0.000364538
7 *51:47 *844:A 4.12084e-05
8 *54:8 *844:A 0.00135789
*RES
1 *843:X *844:A 24.945 
*END

*D_NET *73 0.00521302
*CONN
*I *847:A I *D sky130_fd_sc_hd__buf_2
*I *846:X O *D sky130_fd_sc_hd__and4_1
*CAP
1 *847:A 0.00140219
2 *846:X 0.00140219
3 *847:A *846:A 2.36716e-05
4 *847:A *846:D 0.000508405
5 *847:A *918:A 4.89295e-05
6 *847:A *114:18 0.000346781
7 *847:A *115:51 0.000403906
8 *845:B *847:A 0.000893793
9 *883:A *847:A 0
10 *900:D *847:A 0
11 *905:D *847:A 4.82863e-05
12 *34:10 *847:A 0.00013487
*RES
1 *846:X *847:A 39.255 
*END

*D_NET *74 0.0266485
*CONN
*I *877:A I *D sky130_fd_sc_hd__and4_2
*I *858:A I *D sky130_fd_sc_hd__and2_2
*I *867:A I *D sky130_fd_sc_hd__and3_1
*I *849:A_N I *D sky130_fd_sc_hd__and2b_1
*I *851:B I *D sky130_fd_sc_hd__xor2_1
*I *852:C I *D sky130_fd_sc_hd__and3_1
*I *853:A2 I *D sky130_fd_sc_hd__a21oi_1
*I *847:X O *D sky130_fd_sc_hd__buf_2
*CAP
1 *877:A 0
2 *858:A 0.000815631
3 *867:A 0.000172398
4 *849:A_N 0.000599162
5 *851:B 0.000313311
6 *852:C 0
7 *853:A2 0.000569816
8 *847:X 2.9928e-05
9 *74:85 0.00132185
10 *74:70 0.00105505
11 *74:44 0.000923735
12 *74:16 0.00170974
13 *74:12 0.00153332
14 *74:6 0.000788494
15 *849:A_N *848:A2 1.20199e-05
16 *849:A_N *848:A3 0.000114649
17 *849:A_N *849:B 0.000803518
18 *849:A_N *76:16 4.77757e-05
19 *849:A_N *76:20 0.000491996
20 *849:A_N *95:10 4.37156e-05
21 *849:A_N *105:33 0.000145063
22 *849:A_N *105:49 0.000370343
23 *849:A_N *115:77 0.000138129
24 *851:B *913:CLK 0.000206079
25 *851:B *90:73 4.56204e-05
26 *853:A2 *853:A1 0.000866097
27 *853:A2 *853:B1 0.000791675
28 *853:A2 *77:6 0.000601722
29 *853:A2 *77:10 0.00019637
30 *853:A2 *102:16 0.000586607
31 *853:A2 *117:14 0.000843571
32 *858:A *858:B 0.000588628
33 *858:A *877:B 4.66108e-05
34 *858:A *81:10 0.000408256
35 *858:A *102:37 0
36 *867:A *118:12 0.000350579
37 *74:12 *76:20 0.000886482
38 *74:12 *86:38 0
39 *74:12 *105:49 0.000808338
40 *74:16 *852:A 0.000122326
41 *74:16 *913:CLK 7.99917e-05
42 *74:16 *117:14 0.000366237
43 *74:44 *76:20 5.23362e-05
44 *74:44 *105:49 4.54719e-05
45 *74:70 *846:A 0
46 *74:70 *87:20 0.00012972
47 *74:70 *95:10 8.44611e-05
48 *74:70 *118:12 0.000646959
49 *74:70 *118:44 0.000296986
50 *839:A2 *867:A 0.000197724
51 *843:A *74:12 1.08758e-05
52 *845:B *74:6 4.66108e-05
53 *845:B *74:12 0.00014294
54 *867:C *867:A 0.000110422
55 *868:A2 *849:A_N 9.15755e-05
56 *874:B *858:A 5.63513e-05
57 *874:B *74:85 0.00107958
58 *877:C *858:A 0.000122699
59 *877:C *74:85 0.00154619
60 *877:D *858:A 0.000971998
61 *901:D *853:A2 0.000593191
62 *911:RESET_B *74:12 8.33066e-06
63 *51:10 *867:A 0.000348912
64 *51:10 *74:70 0.000270366
*RES
1 *847:X *74:6 2.05 
2 *74:6 *74:12 13.79 
3 *74:12 *74:16 15.62 
4 *74:16 *853:A2 29.78 
5 *74:16 *852:C 1.6 
6 *74:12 *74:44 0.615 
7 *74:44 *851:B 9.24 
8 *74:44 *849:A_N 21.945 
9 *74:6 *74:70 13.325 
10 *74:70 *867:A 9.615 
11 *74:70 *74:85 19.355 
12 *74:85 *858:A 26.12 
13 *74:85 *877:A 1.6 
*END

*D_NET *75 0.00242705
*CONN
*I *849:B I *D sky130_fd_sc_hd__and2b_1
*I *848:X O *D sky130_fd_sc_hd__a31o_1
*CAP
1 *849:B 0.00045983
2 *848:X 0.00045983
3 *849:B *76:16 0
4 *849:B *87:10 0.000144965
5 *849:B *95:10 0.00024538
6 *849:B *115:77 0.00031353
7 *849:A_N *849:B 0.000803518
*RES
1 *848:X *849:B 20.115 
*END

*D_NET *76 0.0144379
*CONN
*I *850:A I *D sky130_fd_sc_hd__buf_1
*I *849:X O *D sky130_fd_sc_hd__and2b_1
*CAP
1 *850:A 0.00103411
2 *849:X 0.00073184
3 *76:20 0.00199989
4 *76:16 0.00169762
5 *850:A *827:A 0.00116631
6 *850:A *115:14 0.000907091
7 *850:A *115:18 1.46744e-05
8 *76:16 *890:A 2.49909e-05
9 *76:16 *87:10 0.000688037
10 *76:16 *90:73 0
11 *76:16 *105:33 2.39856e-05
12 *76:16 *115:77 7.61761e-05
13 *76:20 *842:B 0
14 *76:20 *866:C 0.000131525
15 *76:20 *95:10 0.00287969
16 *849:A_N *76:16 4.77757e-05
17 *849:A_N *76:20 0.000491996
18 *849:B *76:16 0
19 *867:C *76:20 0
20 *911:RESET_B *76:20 0.000565891
21 *914:RESET_B *76:16 2.65814e-06
22 *57:25 *850:A 0.00101487
23 *74:12 *76:20 0.000886482
24 *74:44 *76:20 5.23362e-05
*RES
1 *849:X *76:16 21.31 
2 *76:16 *76:20 36.275 
3 *76:20 *850:A 26.56 
*END

*D_NET *77 0.00762168
*CONN
*I *854:A I *D sky130_fd_sc_hd__nor2_1
*I *856:B I *D sky130_fd_sc_hd__and2_1
*I *855:B I *D sky130_fd_sc_hd__xor2_1
*I *852:X O *D sky130_fd_sc_hd__and3_1
*CAP
1 *854:A 0.000273504
2 *856:B 0.000277134
3 *855:B 0.000217179
4 *852:X 0.000415872
5 *77:10 0.00114434
6 *77:6 0.00133941
7 *854:A *854:B 0.000329112
8 *855:B *855:A 0.000461799
9 *855:B *856:A 8.09021e-06
10 *855:B *859:A2 0
11 *855:B *928:A 9.37731e-05
12 *855:B *101:10 1.0183e-05
13 *855:B *113:10 2.75145e-05
14 *856:B *856:A 4.77769e-05
15 *856:B *859:A2 4.6075e-05
16 *856:B *928:A 0.00039274
17 *77:10 *117:14 0.000446486
18 *853:A2 *77:6 0.000601722
19 *853:A2 *77:10 0.00019637
20 *899:D *854:A 0.000653776
21 *21:26 *854:A 0.000111044
22 *40:12 *855:B 0.000463286
23 *52:8 *854:A 6.44959e-05
*RES
1 *852:X *77:6 7.225 
2 *77:6 *77:10 10.73 
3 *77:10 *855:B 10.515 
4 *77:10 *856:B 9.78 
5 *77:6 *854:A 15.14 
*END

*D_NET *78 0.00451604
*CONN
*I *854:B I *D sky130_fd_sc_hd__nor2_1
*I *853:Y O *D sky130_fd_sc_hd__a21oi_1
*CAP
1 *854:B 0.00094332
2 *853:Y 0.00094332
3 *854:B *853:B1 0.000863145
4 *854:B *102:16 0.0013882
5 *854:B *102:37 4.89395e-05
6 *854:A *854:B 0.000329112
7 *52:8 *854:B 0
*RES
1 *853:Y *854:B 32.22 
*END

*D_NET *79 0.00232865
*CONN
*I *859:A2 I *D sky130_fd_sc_hd__o21ba_1
*I *856:X O *D sky130_fd_sc_hd__and2_1
*CAP
1 *859:A2 0.00104792
2 *856:X 0.00104792
3 *859:A2 *859:A1 4.77769e-05
4 *859:A2 *81:23 0
5 *859:A2 *101:10 0
6 *855:B *859:A2 0
7 *856:B *859:A2 4.6075e-05
8 *898:D *859:A2 0
9 *907:D *859:A2 0.000138968
*RES
1 *856:X *859:A2 23.445 
*END

*D_NET *80 0.0111415
*CONN
*I *867:B I *D sky130_fd_sc_hd__and3_1
*I *877:B I *D sky130_fd_sc_hd__and4_2
*I *858:B I *D sky130_fd_sc_hd__and2_2
*I *857:X O *D sky130_fd_sc_hd__and4_1
*CAP
1 *867:B 8.3565e-05
2 *877:B 0.000172003
3 *858:B 0.00102025
4 *857:X 0.000649277
5 *80:14 0.00256823
6 *80:10 0.00210882
7 *858:B *873:A1 4.82863e-05
8 *858:B *876:B 0
9 *858:B *908:CLK 0.000153944
10 *858:B *81:10 2.33708e-05
11 *858:B *90:24 0.000188957
12 *858:B *102:37 9.37731e-05
13 *867:B *90:24 4.77757e-05
14 *867:B *118:12 1.95461e-05
15 *877:B *908:CLK 0.000309722
16 *877:B *84:18 0.000173533
17 *877:B *111:12 5.7344e-05
18 *80:10 *832:A1 7.32083e-05
19 *80:10 *857:D 6.19834e-05
20 *80:10 *906:CLK 0
21 *80:10 *118:12 0.00013591
22 *858:A *858:B 0.000588628
23 *858:A *877:B 4.66108e-05
24 *874:B *877:B 4.66108e-05
25 *902:D *877:B 0.000204456
26 *51:10 *867:B 9.50342e-06
27 *57:8 *877:B 6.7449e-05
28 *57:25 *858:B 0.0001249
29 *57:25 *80:14 0.0020638
*RES
1 *857:X *80:10 13.695 
2 *80:10 *80:14 21.08 
3 *80:14 *858:B 23.075 
4 *80:14 *877:B 11.765 
5 *80:10 *867:B 4.92 
*END

*D_NET *81 0.0176712
*CONN
*I *861:A2 I *D sky130_fd_sc_hd__a21oi_1
*I *862:C I *D sky130_fd_sc_hd__and3_1
*I *865:D I *D sky130_fd_sc_hd__and4_1
*I *860:B I *D sky130_fd_sc_hd__xor2_1
*I *859:B1_N I *D sky130_fd_sc_hd__o21ba_1
*I *858:X O *D sky130_fd_sc_hd__and2_2
*CAP
1 *861:A2 0.0011095
2 *862:C 0.000165782
3 *865:D 0
4 *860:B 0
5 *859:B1_N 0
6 *858:X 0.00134391
7 *81:55 0.00222403
8 *81:38 0.0019948
9 *81:23 0.00171764
10 *81:10 0.00201549
11 *861:A2 *825:A2 8.63454e-05
12 *861:A2 *888:A 0.000188355
13 *862:C *825:A2 1.74678e-05
14 *862:C *862:A 5.00147e-05
15 *81:23 *110:16 8.35068e-05
16 *81:23 *113:10 0.000755303
17 *81:38 *848:B1 0.000269663
18 *81:38 *860:A 8.35068e-05
19 *81:38 *100:24 0.00017937
20 *81:38 *113:10 0.000582099
21 *81:55 *865:C 4.77807e-05
22 *81:55 *85:99 0.000185401
23 *81:55 *90:10 0.00045127
24 *81:55 *90:73 0.000268973
25 *81:55 *100:24 0.000926628
26 *836:A *81:38 4.77807e-05
27 *858:A *81:10 0.000408256
28 *858:B *81:10 2.33708e-05
29 *859:A2 *81:23 0
30 *877:D *81:10 0
31 *893:D *861:A2 6.229e-05
32 *893:D *81:55 0.000181651
33 *898:D *81:23 0.000375491
34 *899:D *81:23 5.93408e-05
35 *907:D *81:10 0.000535186
36 *907:D *81:23 5.06374e-05
37 *33:12 *81:38 0
38 *34:10 *861:A2 0
39 *40:12 *81:23 0.00116692
40 *48:16 *862:C 1.34503e-05
*RES
1 *858:X *81:10 27.21 
2 *81:10 *859:B1_N 3.6 
3 *81:10 *81:23 22.88 
4 *81:23 *860:B 1.6 
5 *81:23 *81:38 23.635 
6 *81:38 *865:D 1.6 
7 *81:38 *81:55 24.505 
8 *81:55 *862:C 3.49 
9 *81:55 *861:A2 20.135 
*END

*D_NET *82 0.00394337
*CONN
*I *863:A I *D sky130_fd_sc_hd__nor2_1
*I *861:Y O *D sky130_fd_sc_hd__a21oi_1
*CAP
1 *863:A 0.000594536
2 *861:Y 0.000594536
3 *863:A *888:A 0.000992348
4 *863:A *905:CLK 0.000163019
5 *863:A *85:23 0.000502491
6 *863:A *85:25 0.000325177
7 *863:B *863:A 0.000647304
8 *900:D *863:A 0.000123955
*RES
1 *861:Y *863:A 25.8 
*END

*D_NET *83 0.00316538
*CONN
*I *918:A I *D sky130_fd_sc_hd__clkbuf_16
*I *917:A I *D sky130_fd_sc_hd__clkbuf_16
*I *916:X O *D sky130_fd_sc_hd__clkbuf_16
*CAP
1 *918:A 0.000448385
2 *917:A 0.000660878
3 *916:X 0
4 *83:4 0.00110926
5 *917:A *89:46 4.9253e-06
6 *917:A *108:6 0.000349145
7 *917:A *108:12 5.05521e-05
8 *918:A *825:A2 1.48096e-05
9 *918:A *841:A 1.16578e-05
10 *918:A *87:20 9.40874e-05
11 *918:A *108:6 0.000127191
12 *918:A *118:44 9.28053e-05
13 *824:A *918:A 0.000118081
14 *845:B *918:A 3.46751e-05
15 *847:A *918:A 4.89295e-05
*RES
1 *916:X *83:4 1.6 
2 *83:4 *917:A 10 
3 *83:4 *918:A 12.11 
*END

*D_NET *84 0.0171301
*CONN
*I *901:CLK I *D sky130_fd_sc_hd__dfxtp_1
*I *898:CLK I *D sky130_fd_sc_hd__dfxtp_1
*I *892:CLK I *D sky130_fd_sc_hd__dfxtp_1
*I *907:CLK I *D sky130_fd_sc_hd__dfxtp_1
*I *894:CLK I *D sky130_fd_sc_hd__dfxtp_1
*I *919:A I *D sky130_fd_sc_hd__clkinv_1
*I *891:CLK I *D sky130_fd_sc_hd__dfxtp_2
*I *899:CLK I *D sky130_fd_sc_hd__dfxtp_1
*I *902:CLK I *D sky130_fd_sc_hd__dfxtp_1
*I *908:CLK I *D sky130_fd_sc_hd__dfxtp_1
*I *917:X O *D sky130_fd_sc_hd__clkbuf_16
*CAP
1 *901:CLK 0
2 *898:CLK 0.000262541
3 *892:CLK 0
4 *907:CLK 0
5 *894:CLK 0.000454912
6 *919:A 0
7 *891:CLK 0.000211996
8 *899:CLK 0.000151007
9 *902:CLK 2.27018e-05
10 *908:CLK 0.000434621
11 *917:X 0
12 *84:106 0.00143423
13 *84:91 0.00186104
14 *84:65 0.00135597
15 *84:40 0.000363003
16 *84:18 0.000662179
17 *84:16 0.000679173
18 *84:12 0.000556892
19 *84:10 0.00114351
20 *84:4 0.000849227
21 *891:CLK *842:A 8.03295e-05
22 *891:CLK *89:8 0.000148082
23 *891:CLK *103:16 0.000377912
24 *898:CLK *927:A 0
25 *899:CLK *842:A 0.000225345
26 *908:CLK *94:23 0.000231873
27 *84:16 *103:16 0
28 *84:91 *852:A 0.00019683
29 *84:91 *860:A 0.000478686
30 *84:91 *110:16 0
31 *84:106 *852:A 0.000393388
32 *84:106 *925:A 0
33 *84:106 *87:10 3.66913e-05
34 *84:106 *99:44 8.37979e-05
35 *843:B *908:CLK 0
36 *843:B *84:91 0
37 *843:B *84:106 0
38 *858:B *908:CLK 0.000153944
39 *877:B *908:CLK 0.000309722
40 *877:B *84:18 0.000173533
41 *891:D *891:CLK 1.43717e-05
42 *892:D *84:10 0.000197826
43 *892:D *84:65 4.66108e-05
44 *892:D *84:91 0.000332288
45 *894:D *894:CLK 0.000164771
46 *899:D *899:CLK 1.43717e-05
47 *901:D *898:CLK 0.000558067
48 *901:D *84:106 0.000104021
49 *902:D *902:CLK 4.77757e-05
50 *902:D *84:10 4.31106e-05
51 *902:D *84:12 0.000151353
52 *902:D *84:16 0.000916659
53 *902:D *84:18 7.63476e-05
54 *907:D *84:65 0.000243691
55 *908:D *908:CLK 0.000122325
56 *913:D *894:CLK 8.34493e-05
57 *40:12 *84:12 0
58 *40:12 *84:16 0
59 *51:47 *84:91 5.89332e-05
60 *51:47 *84:106 1.08056e-05
61 *57:8 *908:CLK 0
62 *57:25 *908:CLK 0.000161529
63 *58:14 *891:CLK 0.000301921
64 *58:14 *899:CLK 0.000146702
*RES
1 *917:X *84:4 1.6 
2 *84:4 *84:10 4.445 
3 *84:10 *84:12 1.89 
4 *84:12 *84:16 11.265 
5 *84:16 *84:18 3.93 
6 *84:18 *908:CLK 14.1 
7 *84:18 *902:CLK 4.05 
8 *84:16 *84:40 2 
9 *84:40 *899:CLK 5.5 
10 *84:40 *891:CLK 8.95 
11 *84:12 *919:A 3.6 
12 *84:10 *84:65 15.56 
13 *84:65 *894:CLK 12.785 
14 *84:65 *907:CLK 1.6 
15 *84:4 *84:91 14.75 
16 *84:91 *892:CLK 3.6 
17 *84:91 *84:106 21.53 
18 *84:106 *898:CLK 11.645 
19 *84:106 *901:CLK 1.6 
*END

*D_NET *85 0.0229672
*CONN
*I *910:CLK I *D sky130_fd_sc_hd__dfxtp_2
*I *909:CLK I *D sky130_fd_sc_hd__dfxtp_1
*I *895:CLK I *D sky130_fd_sc_hd__dfxtp_1
*I *893:CLK I *D sky130_fd_sc_hd__dfxtp_1
*I *904:CLK I *D sky130_fd_sc_hd__dfxtp_1
*I *900:CLK I *D sky130_fd_sc_hd__dfxtp_1
*I *903:CLK I *D sky130_fd_sc_hd__dfxtp_1
*I *906:CLK I *D sky130_fd_sc_hd__dfxtp_1
*I *897:CLK I *D sky130_fd_sc_hd__dfxtp_1
*I *905:CLK I *D sky130_fd_sc_hd__dfxtp_1
*I *896:CLK I *D sky130_fd_sc_hd__dfxtp_1
*I *918:X O *D sky130_fd_sc_hd__clkbuf_16
*CAP
1 *910:CLK 0.000922502
2 *909:CLK 0.000891257
3 *895:CLK 0.000305606
4 *893:CLK 0
5 *904:CLK 0.000363172
6 *900:CLK 0
7 *903:CLK 0.000291361
8 *906:CLK 0.000609155
9 *897:CLK 0.0004041
10 *905:CLK 0.000264847
11 *896:CLK 0
12 *918:X 0
13 *85:123 0.00205374
14 *85:108 0.000644107
15 *85:99 0.000383547
16 *85:88 0.000918493
17 *85:53 0.000900516
18 *85:40 0.00123466
19 *85:25 0.0012034
20 *85:23 0.000359856
21 *85:12 0.000533187
22 *85:6 0.000551611
23 *895:CLK *99:8 4.66108e-05
24 *897:CLK *101:8 0.000112036
25 *903:CLK *846:A 0.000112123
26 *903:CLK *857:A 0
27 *904:CLK *90:8 2.75145e-05
28 *905:CLK *888:A 0.000125588
29 *905:CLK *91:8 5.71932e-05
30 *905:CLK *116:14 0.00018605
31 *906:CLK *857:A 0
32 *906:CLK *857:C 0.000784073
33 *906:CLK *878:A1 0.00045807
34 *909:CLK *95:10 1.1392e-05
35 *909:CLK *105:33 0.000127
36 *85:12 *846:D 0.000641778
37 *85:12 *100:24 0.00017832
38 *85:23 *846:D 3.112e-05
39 *85:23 *888:A 0.000104144
40 *85:40 *911:CLK 8.65961e-05
41 *85:88 *90:8 2.49909e-05
42 *85:88 *100:24 0.000525052
43 *85:99 *857:A 9.66883e-05
44 *85:99 *90:10 5.23362e-05
45 *85:99 *90:73 0.000260442
46 *85:99 *99:14 0.000322033
47 *85:108 *99:14 0.000192107
48 *85:123 *90:73 0
49 *85:123 *99:14 2.02316e-05
50 *85:123 *99:44 6.90254e-05
51 *863:A *905:CLK 0.000163019
52 *863:A *85:23 0.000502491
53 *863:A *85:25 0.000325177
54 *895:D *895:CLK 1.43717e-05
55 *896:D *85:12 0.000829846
56 *897:D *897:CLK 0.0001111
57 *903:D *903:CLK 0.000121019
58 *904:D *904:CLK 0.000110161
59 *906:D *906:CLK 0.000456907
60 *908:D *85:12 9.65637e-05
61 *908:D *85:88 0.000294781
62 *910:D *910:CLK 7.82635e-05
63 *911:RESET_B *897:CLK 0.000352343
64 *911:RESET_B *85:40 0.000529008
65 *912:RESET_B *905:CLK 7.58604e-05
66 *914:RESET_B *895:CLK 0.000196054
67 *33:12 *909:CLK 7.82691e-05
68 *34:10 *905:CLK 0.000275424
69 *34:10 *85:23 0.000393866
70 *34:10 *85:25 0.000181912
71 *51:10 *903:CLK 0
72 *51:10 *906:CLK 0
73 *69:10 *85:123 0
74 *69:22 *904:CLK 1.34594e-05
75 *69:22 *85:88 5.21706e-05
76 *69:22 *85:99 4.20983e-05
77 *80:10 *906:CLK 0
78 *81:55 *85:99 0.000185401
*RES
1 *918:X *85:6 3.6 
2 *85:6 *85:12 12.875 
3 *85:12 *896:CLK 1.6 
4 *85:12 *85:23 11.06 
5 *85:23 *85:25 3.93 
6 *85:25 *905:CLK 11.655 
7 *85:25 *85:40 16.25 
8 *85:40 *897:CLK 9.76 
9 *85:40 *85:53 2 
10 *85:53 *906:CLK 18.15 
11 *85:53 *903:CLK 8.67 
12 *85:23 *900:CLK 3.6 
13 *85:6 *85:88 10.055 
14 *85:88 *904:CLK 7.225 
15 *85:88 *85:99 10.52 
16 *85:99 *893:CLK 3.6 
17 *85:99 *85:108 2.4 
18 *85:108 *895:CLK 8.55 
19 *85:108 *85:123 6.185 
20 *85:123 *909:CLK 14.485 
21 *85:123 *910:CLK 14.14 
*END

*D_NET *86 0.0189529
*CONN
*I *846:A I *D sky130_fd_sc_hd__and4_1
*I *848:A1 I *D sky130_fd_sc_hd__a31o_1
*I *841:A I *D sky130_fd_sc_hd__nand2_1
*I *920:A I *D sky130_fd_sc_hd__dlygate4sd3_1
*I *842:A I *D sky130_fd_sc_hd__or2_1
*I *891:Q O *D sky130_fd_sc_hd__dfxtp_2
*CAP
1 *846:A 0.00199293
2 *848:A1 0.000597482
3 *841:A 0.000309439
4 *920:A 0
5 *842:A 0.0015708
6 *891:Q 0
7 *86:38 0.00120548
8 *86:34 0.00247877
9 *86:27 0.000655169
10 *86:4 0.00203869
11 *841:A *887:A 0.000137483
12 *841:A *888:A 0.000181675
13 *841:A *87:20 1.88656e-05
14 *841:A *118:44 1.88656e-05
15 *842:A *842:B 6.47357e-05
16 *842:A *880:B 0.000397067
17 *842:A *103:16 8.35068e-05
18 *846:A *120:DIODE 2.30292e-05
19 *846:A *846:C 8.35068e-05
20 *846:A *846:D 8.52883e-05
21 *846:A *857:A 0
22 *848:A1 *848:A2 7.77813e-05
23 *848:A1 *848:B1 0.00101685
24 *848:A1 *887:A 1.7635e-05
25 *848:A1 *96:22 0.000805584
26 *848:A1 *105:49 8.24284e-06
27 *86:27 *876:A 7.9642e-06
28 *86:27 *89:21 0.000208963
29 *86:27 *103:16 0.000233939
30 *86:34 *840:A 0.000387008
31 *86:38 *848:B1 7.67982e-05
32 *86:38 *96:32 6.85529e-05
33 *843:B *86:27 0
34 *845:B *841:A 6.35751e-05
35 *847:A *846:A 2.36716e-05
36 *868:A2 *848:A1 8.62279e-05
37 *871:A *846:A 2.66586e-05
38 *874:B *846:A 0.000168536
39 *875:D *846:A 0.000154665
40 *891:CLK *842:A 8.03295e-05
41 *891:D *86:27 0.000161837
42 *891:D *86:34 0.000388836
43 *899:CLK *842:A 0.000225345
44 *899:D *842:A 1.54049e-05
45 *903:CLK *846:A 0.000112123
46 *905:D *846:A 6.61232e-05
47 *907:D *842:A 0.00046668
48 *911:RESET_B *86:38 9.84937e-05
49 *918:A *841:A 1.16578e-05
50 *22:8 *846:A 0.00022759
51 *22:8 *86:27 0.000195839
52 *22:8 *86:34 0.000126181
53 *50:8 *86:38 0.000328549
54 *51:10 *846:A 0
55 *51:24 *846:A 0.000143827
56 *51:24 *86:38 0.000191799
57 *53:22 *846:A 0.000640638
58 *58:14 *842:A 9.61979e-05
59 *74:12 *86:38 0
60 *74:70 *846:A 0
*RES
1 *891:Q *86:4 1.6 
2 *86:4 *842:A 31.835 
3 *86:4 *86:27 13.42 
4 *86:27 *920:A 1.6 
5 *86:27 *86:34 6.66 
6 *86:34 *86:38 10.1375 
7 *86:38 *841:A 6.80663 
8 *86:38 *848:A1 21.7575 
9 *86:34 *846:A 34.085 
*END

*D_NET *87 0.0141394
*CONN
*I *865:C I *D sky130_fd_sc_hd__and4_1
*I *866:C I *D sky130_fd_sc_hd__and4_1
*I *864:A I *D sky130_fd_sc_hd__xor2_1
*I *901:Q O *D sky130_fd_sc_hd__dfxtp_1
*CAP
1 *865:C 1.17698e-05
2 *866:C 7.73689e-05
3 *864:A 0.000629329
4 *901:Q 0.00166258
5 *87:20 0.00117928
6 *87:10 0.00214693
7 *864:A *846:D 0.000220396
8 *864:A *98:14 0.000383066
9 *865:C *100:24 4.66108e-05
10 *866:C *866:B 4.66108e-05
11 *866:C *103:20 8.46818e-05
12 *87:10 *95:10 0.000175506
13 *87:10 *105:49 0.000143642
14 *87:20 *846:D 0.000118081
15 *87:20 *865:A 1.10951e-05
16 *87:20 *865:B 0.000951121
17 *87:20 *95:10 0.00138491
18 *87:20 *118:44 8.07557e-05
19 *841:A *87:20 1.88656e-05
20 *849:B *87:10 0.000144965
21 *864:B *864:A 0.00107053
22 *896:D *864:A 0.00218354
23 *896:D *87:20 0.000108375
24 *911:RESET_B *866:C 0.000131525
25 *918:A *87:20 9.40874e-05
26 *74:70 *87:20 0.00012972
27 *76:16 *87:10 0.000688037
28 *76:20 *866:C 0.000131525
29 *81:55 *865:C 4.77807e-05
30 *84:106 *87:10 3.66913e-05
*RES
1 *901:Q *87:10 27.99 
2 *87:10 *87:20 20.12 
3 *87:20 *864:A 25.165 
4 *87:20 *866:C 8.03 
5 *87:10 *865:C 4.05 
*END

*D_NET *88 0.00908649
*CONN
*I *868:A1 I *D sky130_fd_sc_hd__o21ba_1
*I *866:D I *D sky130_fd_sc_hd__and4_1
*I *902:Q O *D sky130_fd_sc_hd__dfxtp_1
*CAP
1 *868:A1 0.00102724
2 *866:D 0.000738028
3 *902:Q 0.000569682
4 *88:10 0.00233495
5 *866:D *103:20 0.00060326
6 *868:A1 *923:A 0
7 *868:A1 *924:A 0
8 *868:A1 *89:46 0.00160724
9 *868:A1 *108:12 0
10 *88:10 *103:16 0.00020796
11 *88:10 *108:12 0
12 *868:A2 *868:A1 0.000386504
13 *891:D *88:10 0.00016163
14 *892:D *868:A1 0.000870923
15 *897:D *88:10 1.7386e-05
16 *51:24 *868:A1 0.000156302
17 *51:24 *88:10 3.97106e-05
18 *51:47 *868:A1 0.000365676
*RES
1 *902:Q *88:10 14.355 
2 *88:10 *866:D 13.365 
3 *88:10 *868:A1 33.015 
*END

*D_NET *89 0.0172076
*CONN
*I *875:A I *D sky130_fd_sc_hd__and4_1
*I *872:A I *D sky130_fd_sc_hd__and3_1
*I *869:A I *D sky130_fd_sc_hd__and2_1
*I *870:A I *D sky130_fd_sc_hd__nor2_1
*I *876:A I *D sky130_fd_sc_hd__and4_1
*I *903:Q O *D sky130_fd_sc_hd__dfxtp_1
*CAP
1 *875:A 0.000830954
2 *872:A 0
3 *869:A 0.000267468
4 *870:A 7.77439e-05
5 *876:A 0.00115131
6 *903:Q 0
7 *89:46 0.00166164
8 *89:21 0.00191016
9 *89:8 0.00250706
10 *89:4 0.00174846
11 *869:A *926:A 0
12 *869:A *102:16 9.70048e-05
13 *869:A *105:33 0.000310595
14 *870:A *98:14 0.000234181
15 *876:A *832:B1 0
16 *876:A *876:D 0.000982147
17 *876:A *108:12 0
18 *89:8 *103:16 4.82919e-05
19 *89:21 *860:A 0.000312379
20 *89:21 *103:16 0.000560567
21 *89:46 *860:A 0.00019746
22 *89:46 *923:A 0
23 *89:46 *924:A 0
24 *89:46 *105:33 0.00031912
25 *89:46 *110:16 0
26 *843:B *876:A 0
27 *843:B *89:21 0
28 *863:B *875:A 0.000206123
29 *868:A1 *89:46 0.00160724
30 *870:B *870:A 0.00016031
31 *872:C *869:A 1.83194e-05
32 *891:CLK *89:8 0.000148082
33 *891:D *89:8 1.54049e-05
34 *892:D *89:46 0.000119762
35 *903:D *875:A 0.000514637
36 *917:A *89:46 4.9253e-06
37 *54:8 *869:A 0
38 *58:14 *89:8 5.18944e-05
39 *69:22 *875:A 0.000206123
40 *71:8 *876:A 0.00072132
41 *86:27 *876:A 7.9642e-06
42 *86:27 *89:21 0.000208963
*RES
1 *903:Q *89:4 1.6 
2 *89:4 *89:8 12.455 
3 *89:8 *876:A 26.295 
4 *89:8 *89:21 10.815 
5 *89:21 *870:A 6.135 
6 *89:21 *89:46 35.61 
7 *89:46 *869:A 11.12 
8 *89:46 *872:A 1.6 
9 *89:4 *875:A 17.075 
*END

*D_NET *90 0.0200771
*CONN
*I *872:B I *D sky130_fd_sc_hd__and3_1
*I *875:B I *D sky130_fd_sc_hd__and4_1
*I *876:B I *D sky130_fd_sc_hd__and4_1
*I *873:A1 I *D sky130_fd_sc_hd__o21ba_1
*I *904:Q O *D sky130_fd_sc_hd__dfxtp_1
*CAP
1 *872:B 0
2 *875:B 0
3 *876:B 0.000419979
4 *873:A1 4.20217e-05
5 *904:Q 2.66637e-05
6 *90:73 0.00263128
7 *90:24 0.00275972
8 *90:10 0.00267847
9 *90:8 0.00303869
10 *876:B *876:D 4.77807e-05
11 *876:B *102:37 0
12 *90:10 *100:24 7.87952e-05
13 *90:24 *839:A1 0.000688682
14 *90:24 *857:B 0
15 *90:24 *881:B1 1.22762e-05
16 *90:73 *851:A 6.93375e-05
17 *90:73 *865:A 0
18 *90:73 *913:CLK 1.91597e-05
19 *90:73 *926:A 7.23602e-05
20 *90:73 *99:44 0.000124819
21 *839:A2 *90:24 0.000819989
22 *843:A *90:73 0.000374195
23 *843:B *90:73 2.23477e-05
24 *851:B *90:73 4.56204e-05
25 *858:B *873:A1 4.82863e-05
26 *858:B *876:B 0
27 *858:B *90:24 0.000188957
28 *863:B *90:10 0.000529946
29 *863:B *90:24 0.000702504
30 *867:B *90:24 4.77757e-05
31 *869:B *90:73 3.03684e-05
32 *873:A2 *873:A1 0
33 *873:A2 *90:24 9.95239e-05
34 *873:B1_N *90:24 0.000187173
35 *877:D *876:B 0.00024048
36 *895:D *90:73 0.0005171
37 *904:CLK *90:8 2.75145e-05
38 *908:D *876:B 3.9141e-05
39 *914:RESET_B *90:73 0.000620587
40 *28:12 *90:24 0.000183895
41 *48:16 *90:10 0.000325829
42 *51:47 *90:73 4.79943e-05
43 *53:22 *90:10 0.000561486
44 *53:22 *90:24 0.000337846
45 *54:8 *90:73 4.05358e-05
46 *69:22 *90:8 8.40213e-05
47 *69:22 *90:10 0.000128875
48 *69:22 *90:24 8.09021e-06
49 *71:8 *876:B 4.89395e-05
50 *76:16 *90:73 0
51 *81:55 *90:10 0.00045127
52 *81:55 *90:73 0.000268973
53 *85:88 *90:8 2.49909e-05
54 *85:99 *90:10 5.23362e-05
55 *85:99 *90:73 0.000260442
56 *85:123 *90:73 0
*RES
1 *904:Q *90:8 4.395 
2 *90:8 *90:10 14.64 
3 *90:10 *90:24 42.08 
4 *90:24 *873:A1 2.41 
5 *90:24 *876:B 14.06 
6 *90:10 *875:B 3.6 
7 *90:8 *90:73 49.315 
8 *90:73 *872:B 1.6 
*END

*D_NET *91 0.0151062
*CONN
*I *875:C I *D sky130_fd_sc_hd__and4_1
*I *874:A I *D sky130_fd_sc_hd__xor2_1
*I *876:C I *D sky130_fd_sc_hd__and4_1
*I *905:Q O *D sky130_fd_sc_hd__dfxtp_1
*CAP
1 *875:C 0.000297641
2 *874:A 1.65033e-05
3 *876:C 0.00270738
4 *905:Q 0.00113763
5 *91:29 0.000568743
6 *91:8 0.00409961
7 *876:C *828:A2 2.19562e-06
8 *876:C *831:A 0.000634505
9 *876:C *832:A2 3.72081e-05
10 *876:C *842:B 0.000385464
11 *876:C *876:D 0.00176297
12 *876:C *884:A 0.000197046
13 *876:C *886:A 0.000160338
14 *91:8 *116:14 4.90227e-05
15 *830:A *875:C 0.000233004
16 *831:B *876:C 7.28465e-06
17 *871:A *874:A 2.49909e-05
18 *875:D *875:C 1.4399e-05
19 *878:A2 *875:C 4.41463e-05
20 *878:A2 *876:C 5.50433e-05
21 *878:A2 *91:29 0.000206873
22 *905:CLK *91:8 5.71932e-05
23 *905:D *91:8 3.16915e-05
24 *911:D *875:C 0.0003967
25 *911:D *91:29 0.000228238
26 *912:RESET_B *91:8 4.2644e-05
27 *914:D *875:C 0.000388736
28 *914:D *876:C 9.05592e-05
29 *914:D *91:29 0.000758229
30 *22:8 *875:C 0.000423642
31 *53:22 *874:A 4.66108e-05
*RES
1 *905:Q *91:8 16.47 
2 *91:8 *876:C 45.67 
3 *91:8 *91:29 9.03 
4 *91:29 *874:A 4.05 
5 *91:29 *875:C 13.245 
*END

*D_NET *92 0.00805698
*CONN
*I *878:A1 I *D sky130_fd_sc_hd__o21ba_1
*I *876:D I *D sky130_fd_sc_hd__and4_1
*I *906:Q O *D sky130_fd_sc_hd__dfxtp_1
*CAP
1 *878:A1 0.000794946
2 *876:D 0.000444438
3 *906:Q 2.0132e-05
4 *92:6 0.00125952
5 *876:D *832:A1 2.38055e-05
6 *876:D *832:A2 4.77807e-05
7 *876:D *832:B1 0.000121659
8 *878:A1 *832:A1 0.000287661
9 *878:A1 *881:A1 0.000683844
10 *878:A1 *93:33 4.77807e-05
11 *876:A *876:D 0.000982147
12 *876:B *876:D 4.77807e-05
13 *876:C *876:D 0.00176297
14 *878:A2 *878:A1 6.85749e-05
15 *878:B1_N *878:A1 0.000499183
16 *886:B *878:A1 3.0933e-05
17 *906:CLK *878:A1 0.00045807
18 *906:D *878:A1 0.000401906
19 *67:10 *876:D 1.42674e-05
20 *71:8 *876:D 5.95938e-05
*RES
1 *906:Q *92:6 1.96 
2 *92:6 *876:D 19.3 
3 *92:6 *878:A1 23.59 
*END

*D_NET *93 0.0136349
*CONN
*I *880:A I *D sky130_fd_sc_hd__nand3_2
*I *881:A1 I *D sky130_fd_sc_hd__a21o_1
*I *885:A I *D sky130_fd_sc_hd__and4_1
*I *879:A I *D sky130_fd_sc_hd__xor2_1
*I *907:Q O *D sky130_fd_sc_hd__dfxtp_1
*CAP
1 *880:A 5.74098e-05
2 *881:A1 0.000703196
3 *885:A 0
4 *879:A 0
5 *907:Q 0.000569324
6 *93:33 0.00277419
7 *93:18 0.00354939
8 *93:8 0.00210513
9 *881:A1 *828:A2 0.000101164
10 *881:A1 *116:38 8.32864e-05
11 *93:33 *857:A 0
12 *93:33 *885:B 0.00011658
13 *829:B *93:33 0.0017136
14 *829:C *93:33 1.70906e-05
15 *878:A1 *881:A1 0.000683844
16 *878:A1 *93:33 4.77807e-05
17 *878:A2 *881:A1 0.000357583
18 *879:B *93:33 0.000755315
19 *894:D *93:8 0
20 *894:D *93:18 0
21 *58:14 *93:18 0
*RES
1 *907:Q *93:8 13.14 
2 *93:8 *93:18 25.01 
3 *93:18 *879:A 1.6 
4 *93:18 *93:33 42.37 
5 *93:33 *885:A 1.6 
6 *93:33 *881:A1 20.69 
7 *93:8 *880:A 4.395 
*END

*D_NET *94 0.013723
*CONN
*I *881:B1 I *D sky130_fd_sc_hd__a21o_1
*I *885:B I *D sky130_fd_sc_hd__and4_1
*I *880:B I *D sky130_fd_sc_hd__nand3_2
*I *908:Q O *D sky130_fd_sc_hd__dfxtp_1
*CAP
1 *881:B1 0.000471328
2 *885:B 0.000215288
3 *880:B 0.000867326
4 *908:Q 0
5 *94:23 0.00355074
6 *94:4 0.00373145
7 *880:B *101:10 0
8 *881:B1 *857:A 0
9 *881:B1 *857:B 0.000217317
10 *885:B *857:B 0.000449417
11 *94:23 *827:A 1.91597e-05
12 *94:23 *115:18 0.00166244
13 *842:A *880:B 0.000397067
14 *863:B *881:B1 0.00011308
15 *880:C *880:B 0.000502483
16 *881:A2 *881:B1 0.000492549
17 *907:D *880:B 0
18 *908:CLK *94:23 0.000231873
19 *908:D *94:23 0.000132456
20 *22:8 *880:B 0.000198939
21 *57:25 *94:23 0.00034119
22 *90:24 *881:B1 1.22762e-05
23 *93:33 *885:B 0.00011658
*RES
1 *908:Q *94:4 1.6 
2 *94:4 *880:B 23.255 
3 *94:4 *94:23 39.02 
4 *94:23 *885:B 9.06 
5 *94:23 *881:B1 12.93 
*END

*D_NET *95 0.0120572
*CONN
*I *884:A I *D sky130_fd_sc_hd__xnor2_1
*I *885:C I *D sky130_fd_sc_hd__and4_1
*I *909:Q O *D sky130_fd_sc_hd__dfxtp_1
*CAP
1 *884:A 9.37336e-05
2 *885:C 0.00070746
3 *909:Q 0.00122408
4 *95:10 0.00202528
5 *884:A *828:A2 0.000169112
6 *884:A *842:B 8.52972e-05
7 *885:C *832:A1 0.000111293
8 *95:10 *832:A1 8.33066e-06
9 *95:10 *842:B 0
10 *95:10 *105:49 0.000143642
11 *95:10 *118:12 0.00153112
12 *849:A_N *95:10 4.37156e-05
13 *849:B *95:10 0.00024538
14 *876:C *884:A 0.000197046
15 *906:D *885:C 0.000935736
16 *909:CLK *95:10 1.1392e-05
17 *74:70 *95:10 8.44611e-05
18 *76:20 *95:10 0.00287969
19 *87:10 *95:10 0.000175506
20 *87:20 *95:10 0.00138491
*RES
1 *909:Q *95:10 46.485 
2 *95:10 *885:C 13.71 
3 *95:10 *884:A 7.5 
*END

*D_NET *96 0.018497
*CONN
*I *848:A2 I *D sky130_fd_sc_hd__a31o_1
*I *841:B I *D sky130_fd_sc_hd__nand2_1
*I *120:DIODE I *D sky130_fd_sc_hd__diode_2
*I *846:B I *D sky130_fd_sc_hd__and4_1
*I *842:B I *D sky130_fd_sc_hd__or2_1
*I *892:Q O *D sky130_fd_sc_hd__dfxtp_1
*CAP
1 *848:A2 0.000132662
2 *841:B 5.09072e-05
3 *120:DIODE 0.000110418
4 *846:B 0
5 *842:B 0.0023164
6 *892:Q 0.000132271
7 *96:59 0.00290685
8 *96:32 0.00586101
9 *96:22 0.00117709
10 *96:8 0.000642945
11 *120:DIODE *846:C 4.82919e-05
12 *842:B *828:A2 3.20857e-05
13 *842:B *828:B1 4.77769e-05
14 *848:A2 *848:A3 0.000115945
15 *848:A2 *105:49 0.000227065
16 *96:8 *117:53 4.66108e-05
17 *96:8 *117:64 0.000610918
18 *96:22 *105:49 0.000708228
19 *96:32 *848:B1 0.000197348
20 *96:32 *887:A 4.66108e-05
21 *829:C *842:B 1.34618e-05
22 *842:A *842:B 6.47357e-05
23 *843:A *841:B 1.33799e-05
24 *843:A *96:32 6.9615e-05
25 *846:A *120:DIODE 2.30292e-05
26 *848:A1 *848:A2 7.77813e-05
27 *848:A1 *96:22 0.000805584
28 *849:A_N *848:A2 1.20199e-05
29 *867:C *842:B 0.000173105
30 *867:C *96:32 1.86013e-05
31 *868:A2 *848:A2 0.000136685
32 *876:C *842:B 0.000385464
33 *884:A *842:B 8.52972e-05
34 *884:B *842:B 0.000117265
35 *900:D *96:59 4.61701e-06
36 *33:12 *842:B 0
37 *33:12 *96:32 0
38 *50:8 *96:32 0.000329699
39 *67:27 *96:8 0.000686633
40 *76:20 *842:B 0
41 *86:38 *96:32 6.85529e-05
42 *95:10 *842:B 0
*RES
1 *892:Q *96:8 9.915 
2 *96:8 *96:22 14.6525 
3 *96:22 *96:32 16.655 
4 *96:32 *842:B 44.1775 
5 *96:32 *96:59 7.4657 
6 *96:59 *846:B 1.6 
7 *96:59 *120:DIODE 3.43 
8 *96:22 *841:B 2.515 
9 *96:8 *848:A2 8.04 
*END

*D_NET *97 0.00984011
*CONN
*I *845:A I *D sky130_fd_sc_hd__xnor2_1
*I *846:C I *D sky130_fd_sc_hd__and4_1
*I *848:A3 I *D sky130_fd_sc_hd__a31o_1
*I *893:Q O *D sky130_fd_sc_hd__dfxtp_1
*CAP
1 *845:A 6.38184e-05
2 *846:C 0.000693096
3 *848:A3 0.000261429
4 *893:Q 0
5 *97:27 0.00285045
6 *97:4 0.00235496
7 *846:C *846:D 0
8 *848:A3 *100:24 0.00013124
9 *97:27 *822:A 0.000227068
10 *97:27 *100:24 0.000272093
11 *120:DIODE *846:C 4.82919e-05
12 *845:B *845:A 4.8854e-05
13 *846:A *846:C 8.35068e-05
14 *848:A2 *848:A3 0.000115945
15 *849:A_N *848:A3 0.000114649
16 *868:A2 *848:A3 4.77769e-05
17 *883:A *846:C 0.000481503
18 *883:A *97:27 0.00191358
19 *893:D *97:27 7.22799e-05
20 *900:D *846:C 5.95694e-05
*RES
1 *893:Q *97:4 1.6 
2 *97:4 *848:A3 9.845 
3 *97:4 *97:27 37.91 
4 *97:27 *846:C 17.04 
5 *97:27 *845:A 4.74 
*END

*D_NET *98 0.0153249
*CONN
*I *846:D I *D sky130_fd_sc_hd__and4_1
*I *848:B1 I *D sky130_fd_sc_hd__a31o_1
*I *894:Q O *D sky130_fd_sc_hd__dfxtp_1
*CAP
1 *846:D 0.00172204
2 *848:B1 0.000744719
3 *894:Q 0.00178194
4 *98:14 0.00424869
5 *848:B1 *887:A 2.05571e-05
6 *98:14 *859:A1 0.000681451
7 *98:14 *102:37 0.000111398
8 *843:A *98:14 7.24849e-05
9 *846:A *846:D 8.52883e-05
10 *846:C *846:D 0
11 *847:A *846:D 0.000508405
12 *848:A1 *848:B1 0.00101685
13 *864:A *846:D 0.000220396
14 *864:A *98:14 0.000383066
15 *864:B *846:D 0.00103642
16 *864:B *98:14 0.000380737
17 *870:A *98:14 0.000234181
18 *870:B *98:14 3.83194e-05
19 *896:D *846:D 0.000487575
20 *28:12 *98:14 0.000132821
21 *33:12 *848:B1 0
22 *33:12 *98:14 4.4495e-05
23 *53:22 *846:D 3.83194e-05
24 *81:38 *848:B1 0.000269663
25 *85:12 *846:D 0.000641778
26 *85:23 *846:D 3.112e-05
27 *86:38 *848:B1 7.67982e-05
28 *87:20 *846:D 0.000118081
29 *96:32 *848:B1 0.000197348
*RES
1 *894:Q *98:14 35.39 
2 *98:14 *848:B1 24.605 
3 *98:14 *846:D 40.895 
*END

*D_NET *99 0.0176731
*CONN
*I *853:A1 I *D sky130_fd_sc_hd__a21oi_1
*I *852:A I *D sky130_fd_sc_hd__and3_1
*I *851:A I *D sky130_fd_sc_hd__xor2_1
*I *857:A I *D sky130_fd_sc_hd__and4_1
*I *895:Q O *D sky130_fd_sc_hd__dfxtp_1
*CAP
1 *853:A1 0.0013641
2 *852:A 0.000185451
3 *851:A 3.39089e-05
4 *857:A 0.00197135
5 *895:Q 0.00010052
6 *99:44 0.0032791
7 *99:14 0.00240311
8 *99:8 0.00222791
9 *851:A *913:CLK 4.82299e-05
10 *852:A *117:14 0.000121019
11 *853:A1 *853:B1 0.000269731
12 *857:A *857:B 5.06989e-05
13 *857:A *857:C 0
14 *843:A *99:44 0.000313956
15 *846:A *857:A 0
16 *853:A2 *853:A1 0.000866097
17 *881:B1 *857:A 0
18 *895:CLK *99:8 4.66108e-05
19 *903:CLK *857:A 0
20 *906:CLK *857:A 0
21 *914:RESET_B *857:A 0
22 *914:RESET_B *99:14 0
23 *48:16 *857:A 3.76283e-05
24 *51:47 *852:A 0.000593322
25 *51:47 *99:44 0.000137672
26 *63:18 *857:A 3.1889e-05
27 *69:22 *857:A 0.00190023
28 *74:16 *852:A 0.000122326
29 *84:91 *852:A 0.00019683
30 *84:106 *852:A 0.000393388
31 *84:106 *99:44 8.37979e-05
32 *85:99 *857:A 9.66883e-05
33 *85:99 *99:14 0.000322033
34 *85:108 *99:14 0.000192107
35 *85:123 *99:14 2.02316e-05
36 *85:123 *99:44 6.90254e-05
37 *90:73 *851:A 6.93375e-05
38 *90:73 *99:44 0.000124819
39 *93:33 *857:A 0
*RES
1 *895:Q *99:8 4.74 
2 *99:8 *99:14 7.89 
3 *99:14 *857:A 40.71 
4 *99:14 *851:A 4.74 
5 *99:8 *99:44 25.075 
6 *99:44 *852:A 11.73 
7 *99:44 *853:A1 21.765 
*END

*D_NET *100 0.0179798
*CONN
*I *857:B I *D sky130_fd_sc_hd__and4_1
*I *853:B1 I *D sky130_fd_sc_hd__a21oi_1
*I *852:B I *D sky130_fd_sc_hd__and3_1
*I *896:Q O *D sky130_fd_sc_hd__dfxtp_1
*CAP
1 *857:B 0.00118026
2 *853:B1 0.000381256
3 *852:B 0.000338099
4 *896:Q 0.000269929
5 *100:24 0.00250266
6 *100:10 0.0032335
7 *852:B *913:CLK 0.000382531
8 *852:B *926:A 0.000312009
9 *852:B *111:12 1.97589e-06
10 *853:B1 *926:A 0.000171875
11 *857:B *861:A1 2.75092e-05
12 *100:24 *924:A 0.00032658
13 *836:A *100:24 0.000308645
14 *848:A3 *100:24 0.00013124
15 *853:A1 *853:B1 0.000269731
16 *853:A2 *853:B1 0.000791675
17 *854:B *853:B1 0.000863145
18 *857:A *857:B 5.06989e-05
19 *865:C *100:24 4.66108e-05
20 *868:A2 *100:24 0.000119247
21 *878:B1_N *857:B 5.00903e-05
22 *881:A2 *857:B 0.0001534
23 *881:B1 *857:B 0.000217317
24 *885:B *857:B 0.000449417
25 *893:D *100:24 0.000256692
26 *896:D *100:10 0.000378337
27 *902:D *852:B 0.00031231
28 *902:D *853:B1 0.000179579
29 *908:D *857:B 0.000614604
30 *908:D *100:10 9.47962e-06
31 *908:D *100:24 3.6451e-05
32 *53:22 *857:B 0.000268546
33 *53:22 *100:24 6.87667e-05
34 *57:27 *857:B 0.000479467
35 *69:10 *100:24 0.000494284
36 *69:22 *100:24 0.000141599
37 *81:38 *100:24 0.00017937
38 *81:55 *100:24 0.000926628
39 *85:12 *100:24 0.00017832
40 *85:88 *100:24 0.000525052
41 *90:10 *100:24 7.87952e-05
42 *90:24 *857:B 0
43 *97:27 *100:24 0.000272093
*RES
1 *896:Q *100:10 7.3875 
2 *100:10 *100:24 47.9575 
3 *100:24 *852:B 10.83 
4 *100:24 *853:B1 17.58 
5 *100:10 *857:B 31.7925 
*END

*D_NET *101 0.0153128
*CONN
*I *857:C I *D sky130_fd_sc_hd__and4_1
*I *856:A I *D sky130_fd_sc_hd__and2_1
*I *855:A I *D sky130_fd_sc_hd__xor2_1
*I *897:Q O *D sky130_fd_sc_hd__dfxtp_1
*CAP
1 *857:C 0.000818454
2 *856:A 0.000288336
3 *855:A 0.000213226
4 *897:Q 0
5 *101:10 0.00159851
6 *101:8 0.00370026
7 *101:4 0.00342177
8 *856:A *928:A 0.000265021
9 *855:B *855:A 0.000461799
10 *855:B *856:A 8.09021e-06
11 *855:B *101:10 1.0183e-05
12 *856:B *856:A 4.77769e-05
13 *857:A *857:C 0
14 *859:A2 *101:10 0
15 *880:B *101:10 0
16 *894:D *101:10 0
17 *897:CLK *101:8 0.000112036
18 *897:D *101:8 0.00138723
19 *902:D *101:8 0.000128917
20 *906:CLK *857:C 0.000784073
21 *907:D *101:10 0
22 *911:RESET_B *857:C 0.000309374
23 *911:RESET_B *101:8 0.00026643
24 *913:D *856:A 0.000130714
25 *913:D *101:10 0.00136055
*RES
1 *897:Q *101:4 1.6 
2 *101:4 *101:8 33.5 
3 *101:8 *101:10 23.31 
4 *101:10 *855:A 8.19 
5 *101:10 *856:A 10.47 
6 *101:4 *857:C 20.3 
*END

*D_NET *102 0.0141497
*CONN
*I *857:D I *D sky130_fd_sc_hd__and4_1
*I *859:A1 I *D sky130_fd_sc_hd__o21ba_1
*I *898:Q O *D sky130_fd_sc_hd__dfxtp_1
*CAP
1 *857:D 0.00149345
2 *859:A1 0.000268515
3 *898:Q 0.00100507
4 *102:37 0.00342685
5 *102:16 0.00320699
6 *102:16 *926:A 0
7 *853:A2 *102:16 0.000586607
8 *854:B *102:16 0.0013882
9 *854:B *102:37 4.89395e-05
10 *858:A *102:37 0
11 *858:B *102:37 9.37731e-05
12 *859:A2 *859:A1 4.77769e-05
13 *869:A *102:16 9.70048e-05
14 *872:C *102:16 4.41506e-05
15 *873:A2 *102:37 0
16 *876:B *102:37 0
17 *877:D *102:37 0
18 *879:B *102:37 0
19 *896:D *102:37 0.000154863
20 *899:D *102:16 0
21 *899:D *102:37 0.000492505
22 *901:D *102:16 0.000652959
23 *21:26 *102:37 0.000287222
24 *52:8 *102:37 0
25 *54:8 *102:16 0
26 *57:8 *102:37 0
27 *80:10 *857:D 6.19834e-05
28 *98:14 *859:A1 0.000681451
29 *98:14 *102:37 0.000111398
*RES
1 *898:Q *102:16 32.09 
2 *102:16 *859:A1 8.275 
3 *102:16 *102:37 36.3625 
4 *102:37 *857:D 22.5775 
*END

*D_NET *103 0.0156512
*CONN
*I *860:A I *D sky130_fd_sc_hd__xor2_1
*I *861:A1 I *D sky130_fd_sc_hd__a21oi_1
*I *865:A I *D sky130_fd_sc_hd__and4_1
*I *862:A I *D sky130_fd_sc_hd__and3_1
*I *866:A I *D sky130_fd_sc_hd__and4_1
*I *899:Q O *D sky130_fd_sc_hd__dfxtp_1
*CAP
1 *860:A 0.000323755
2 *861:A1 0.000590379
3 *865:A 0.000616452
4 *862:A 0.000189458
5 *866:A 0
6 *899:Q 0.000325022
7 *103:31 0.0010935
8 *103:27 0.000954286
9 *103:20 0.000417565
10 *103:16 0.000990025
11 *860:A *110:16 0
12 *860:A *113:10 8.35068e-05
13 *861:A1 *825:B1_N 0.000242104
14 *861:A1 *861:B1 0.000444287
15 *861:A1 *866:B 0.000136931
16 *861:A1 *914:CLK 9.13235e-05
17 *861:A1 *104:12 0.000702052
18 *861:A1 *115:51 0.000115351
19 *861:A1 *118:6 3.75126e-05
20 *862:A *825:A2 0.000227828
21 *865:A *865:B 0.000287531
22 *865:A *118:44 0.000695972
23 *103:20 *866:B 2.0187e-05
24 *103:27 *866:B 0.000104588
25 *103:27 *118:6 4.77757e-05
26 *103:27 *118:12 8.23457e-05
27 *103:31 *104:25 0
28 *103:31 *118:44 0.000490116
29 *824:A *862:A 0.000378906
30 *842:A *103:16 8.35068e-05
31 *857:B *861:A1 2.75092e-05
32 *862:C *862:A 5.00147e-05
33 *866:C *103:20 8.46818e-05
34 *866:D *103:20 0.00060326
35 *891:CLK *103:16 0.000377912
36 *895:D *865:A 0
37 *914:D *861:A1 8.25851e-05
38 *40:12 *103:16 7.20529e-05
39 *48:16 *862:A 0.000157282
40 *51:24 *860:A 0.000343398
41 *51:24 *103:16 2.98587e-05
42 *51:24 *103:20 0.001158
43 *51:47 *860:A 0.000706435
44 *53:22 *861:A1 5.20249e-05
45 *81:38 *860:A 8.35068e-05
46 *84:16 *103:16 0
47 *84:91 *860:A 0.000478686
48 *86:27 *103:16 0.000233939
49 *87:20 *865:A 1.10951e-05
50 *88:10 *103:16 0.00020796
51 *89:8 *103:16 4.82919e-05
52 *89:21 *860:A 0.000312379
53 *89:21 *103:16 0.000560567
54 *89:46 *860:A 0.00019746
55 *90:73 *865:A 0
*RES
1 *899:Q *103:16 18.76 
2 *103:16 *103:20 14.18 
3 *103:20 *866:A 1.6 
4 *103:20 *103:27 1.83 
5 *103:27 *103:31 7.97 
6 *103:31 *862:A 9.24 
7 *103:31 *865:A 16.695 
8 *103:27 *861:A1 22.415 
9 *103:16 *860:A 16.74 
*END

*D_NET *104 0.0106494
*CONN
*I *861:B1 I *D sky130_fd_sc_hd__a21oi_1
*I *862:B I *D sky130_fd_sc_hd__and3_1
*I *865:B I *D sky130_fd_sc_hd__and4_1
*I *866:B I *D sky130_fd_sc_hd__and4_1
*I *900:Q O *D sky130_fd_sc_hd__dfxtp_1
*CAP
1 *861:B1 0.000382152
2 *862:B 0.000192571
3 *865:B 0.000454889
4 *866:B 0.000370503
5 *900:Q 0.00029167
6 *104:25 0.000951715
7 *104:12 0.00141491
8 *104:10 0.00141398
9 *861:B1 *115:51 2.747e-05
10 *862:B *825:A2 0.000255492
11 *865:B *825:A2 0.000307327
12 *865:B *118:44 0.000641552
13 *104:10 *116:38 0
14 *104:25 *915:A 0.000512503
15 *861:A1 *861:B1 0.000444287
16 *861:A1 *866:B 0.000136931
17 *861:A1 *104:12 0.000702052
18 *865:A *865:B 0.000287531
19 *866:C *866:B 4.66108e-05
20 *878:A2 *104:10 0.000185398
21 *911:D *104:10 0.000553941
22 *87:20 *865:B 0.000951121
23 *103:20 *866:B 2.0187e-05
24 *103:27 *866:B 0.000104588
25 *103:31 *104:25 0
*RES
1 *900:Q *104:10 13.1 
2 *104:10 *104:12 9.42 
3 *104:12 *866:B 6.19 
4 *104:12 *104:25 10.225 
5 *104:25 *865:B 19.535 
6 *104:25 *862:B 4.12 
7 *104:10 *861:B1 6.895 
*END

*D_NET *105 0.0194257
*CONN
*I *890:A I *D sky130_fd_sc_hd__inv_2
*I *888:A I *D sky130_fd_sc_hd__inv_2
*I *887:A I *D sky130_fd_sc_hd__inv_2
*I *889:A I *D sky130_fd_sc_hd__inv_2
*I *921:X O *D sky130_fd_sc_hd__buf_2
*CAP
1 *890:A 2.37929e-05
2 *888:A 0.00286997
3 *887:A 0.000151807
4 *889:A 0
5 *921:X 0.000571396
6 *105:49 0.00362267
7 *105:33 0.00314839
8 *105:12 0.0030951
9 *888:A *828:A2 0
10 *888:A *886:A 5.09431e-05
11 *888:A *116:14 0.000160707
12 *888:A *116:38 0
13 *105:49 *835:A 4.51281e-05
14 *841:A *887:A 0.000137483
15 *841:A *888:A 0.000181675
16 *843:A *887:A 4.77769e-05
17 *848:A1 *887:A 1.7635e-05
18 *848:A1 *105:49 8.24284e-06
19 *848:A2 *105:49 0.000227065
20 *848:B1 *887:A 2.05571e-05
21 *849:A_N *105:33 0.000145063
22 *849:A_N *105:49 0.000370343
23 *861:A2 *888:A 0.000188355
24 *863:A *888:A 0.000992348
25 *868:A2 *105:33 0.00026754
26 *869:A *105:33 0.000310595
27 *882:B *888:A 0
28 *905:CLK *888:A 0.000125588
29 *909:CLK *105:33 0.000127
30 *912:RESET_B *888:A 3.78419e-05
31 *913:RESET_B *105:12 8.14331e-05
32 *33:12 *105:33 3.10498e-05
33 *34:10 *888:A 0
34 *74:12 *105:49 0.000808338
35 *74:44 *105:49 4.54719e-05
36 *76:16 *890:A 2.49909e-05
37 *76:16 *105:33 2.39856e-05
38 *85:23 *888:A 0.000104144
39 *87:10 *105:49 0.000143642
40 *89:46 *105:33 0.00031912
41 *95:10 *105:49 0.000143642
42 *96:22 *105:49 0.000708228
43 *96:32 *887:A 4.66108e-05
*RES
1 *921:X *105:12 15.275 
2 *105:12 *889:A 1.6 
3 *105:12 *105:33 40.45 
4 *105:33 *105:49 20.2786 
5 *105:49 *887:A 5.05357 
6 *105:49 *888:A 30.9486 
7 *105:33 *890:A 2.05 
*END

*D_NET *106 0.000766983
*CONN
*I *840:A I *D sky130_fd_sc_hd__inv_2
*I *920:X O *D sky130_fd_sc_hd__dlygate4sd3_1
*CAP
1 *840:A 7.71284e-05
2 *920:X 7.71284e-05
3 *22:8 *840:A 0.000225718
4 *86:34 *840:A 0.000387008
*RES
1 *920:X *840:A 6.755 
*END

*D_NET *107 0.00647513
*CONN
*I *922:A I *D sky130_fd_sc_hd__buf_1
*I *834:Y O *D sky130_fd_sc_hd__o31ai_1
*CAP
1 *922:A 0.00122989
2 *834:Y 0.00122989
3 *922:A *826:B 0.000980959
4 *922:A *114:8 0.000329633
5 *922:A *116:51 0.00134909
6 *922:A *116:53 0.00107961
7 *69:10 *922:A 0.000276057
*RES
1 *834:Y *922:A 42.405 
*END

*D_NET *108 0.0132335
*CONN
*I *825:A2 I *D sky130_fd_sc_hd__o21ba_1
*I *923:A I *D sky130_fd_sc_hd__buf_1
*I *829:A I *D sky130_fd_sc_hd__and3_1
*I *832:B1 I *D sky130_fd_sc_hd__o21ai_2
*I *824:X O *D sky130_fd_sc_hd__clkbuf_2
*CAP
1 *825:A2 0.000857902
2 *923:A 0.0011302
3 *829:A 0
4 *832:B1 0.00027764
5 *824:X 0
6 *108:12 0.00148987
7 *108:6 0.00272744
8 *108:4 0.00124292
9 *825:A2 *114:18 0.000319941
10 *923:A *826:A 0.000141599
11 *923:A *835:C 0
12 *923:A *924:A 0.00119453
13 *824:A *825:A2 6.41634e-05
14 *829:C *832:B1 8.51529e-05
15 *829:C *108:12 5.53249e-06
16 *843:A *923:A 0
17 *861:A2 *825:A2 8.63454e-05
18 *862:A *825:A2 0.000227828
19 *862:B *825:A2 0.000255492
20 *862:C *825:A2 1.74678e-05
21 *865:B *825:A2 0.000307327
22 *868:A1 *923:A 0
23 *868:A1 *108:12 0
24 *876:A *832:B1 0
25 *876:A *108:12 0
26 *876:D *832:B1 0.000121659
27 *891:D *108:12 0
28 *917:A *108:6 0.000349145
29 *917:A *108:12 5.05521e-05
30 *918:A *825:A2 1.48096e-05
31 *918:A *108:6 0.000127191
32 *48:16 *825:A2 0.00019391
33 *62:12 *825:A2 0.000288351
34 *67:10 *832:B1 8.23021e-05
35 *67:10 *108:12 0.000102839
36 *67:27 *923:A 0.000894701
37 *67:27 *108:12 0.000576689
38 *88:10 *108:12 0
39 *89:46 *923:A 0
*RES
1 *824:X *108:4 1.6 
2 *108:4 *108:6 7.695 
3 *108:6 *108:12 24.83 
4 *108:12 *832:B1 9.18 
5 *108:12 *829:A 3.6 
6 *108:6 *923:A 32.48 
7 *108:4 *825:A2 24.185 
*END

*D_NET *109 0.00429676
*CONN
*I *924:A I *D sky130_fd_sc_hd__buf_1
*I *836:X O *D sky130_fd_sc_hd__clkbuf_1
*CAP
1 *924:A 0.00104385
2 *836:X 0.00104385
3 *924:A *826:A 0.000257139
4 *924:A *826:B 0.000430813
5 *868:A1 *924:A 0
6 *923:A *924:A 0.00119453
7 *89:46 *924:A 0
8 *100:24 *924:A 0.00032658
*RES
1 *836:X *924:A 30.255 
*END

*D_NET *110 0.00971305
*CONN
*I *925:A I *D sky130_fd_sc_hd__buf_1
*I *915:X O *D sky130_fd_sc_hd__buf_1
*CAP
1 *925:A 0.00123152
2 *915:X 0.00226014
3 *110:16 0.00349166
4 *925:A *826:A 9.28507e-05
5 *925:A *826:B 0.00016031
6 *925:A *926:A 0
7 *110:16 *113:10 8.23457e-05
8 *843:B *925:A 0.000799722
9 *843:B *110:16 0.00118203
10 *860:A *110:16 0
11 *882:A *110:16 0.00029002
12 *51:60 *925:A 0
13 *53:22 *110:16 3.89366e-05
14 *81:23 *110:16 8.35068e-05
15 *84:91 *110:16 0
16 *84:106 *925:A 0
17 *89:46 *110:16 0
*RES
1 *915:X *110:16 40.66 
2 *110:16 *925:A 25.59 
*END

*D_NET *111 0.0102585
*CONN
*I *926:A I *D sky130_fd_sc_hd__buf_1
*I *839:Y O *D sky130_fd_sc_hd__o21ai_1
*CAP
1 *926:A 0.000730365
2 *839:Y 0.00116514
3 *111:12 0.0018955
4 *926:A *826:A 2.75145e-05
5 *926:A *826:B 4.82863e-05
6 *844:A *926:A 0.000320242
7 *844:A *111:12 0.000779249
8 *852:B *926:A 0.000312009
9 *852:B *111:12 1.97589e-06
10 *853:B1 *926:A 0.000171875
11 *869:A *926:A 0
12 *872:C *926:A 0.000114492
13 *877:B *111:12 5.7344e-05
14 *880:C *111:12 0.000420405
15 *902:D *926:A 7.40925e-05
16 *902:D *111:12 0.00176823
17 *925:A *926:A 0
18 *21:26 *926:A 0
19 *21:26 *111:12 0.000504609
20 *28:12 *111:12 0.00068296
21 *51:60 *926:A 0.000356583
22 *54:8 *926:A 4.33978e-05
23 *54:8 *111:12 0.000460266
24 *57:8 *111:12 0.000251588
25 *90:73 *926:A 7.23602e-05
26 *102:16 *926:A 0
*RES
1 *839:Y *111:12 37.0275 
2 *111:12 *926:A 21.9675 
*END

*D_NET *112 0.0103758
*CONN
*I *927:A I *D sky130_fd_sc_hd__buf_1
*I *833:Y O *D sky130_fd_sc_hd__inv_2
*CAP
1 *927:A 0.000793481
2 *833:Y 0.00289534
3 *112:8 0.00368882
4 *112:8 *117:71 1.34503e-05
5 *833:A *112:8 0.00023786
6 *892:D *112:8 1.43717e-05
7 *898:CLK *927:A 0
8 *898:D *927:A 0.000811957
9 *901:D *927:A 0
10 *67:27 *112:8 0.000732286
11 *67:29 *112:8 0.00118823
*RES
1 *833:Y *112:8 47.52 
2 *112:8 *927:A 19.77 
*END

*D_NET *113 0.0136573
*CONN
*I *915:A I *D sky130_fd_sc_hd__buf_1
*I *928:A I *D sky130_fd_sc_hd__buf_1
*I *838:X O *D sky130_fd_sc_hd__a211o_1
*CAP
1 *915:A 0.000610039
2 *928:A 0.00108835
3 *838:X 0.000679575
4 *113:10 0.00321679
5 *113:6 0.00341805
6 *838:A2 *113:6 0.000615157
7 *855:B *928:A 9.37731e-05
8 *855:B *113:10 2.75145e-05
9 *856:A *928:A 0.000265021
10 *856:B *928:A 0.00039274
11 *860:A *113:10 8.35068e-05
12 *882:A *915:A 4.89362e-05
13 *914:RESET_B *915:A 0.00106674
14 *40:12 *113:10 0.000118901
15 *81:23 *113:10 0.000755303
16 *81:38 *113:10 0.000582099
17 *104:25 *915:A 0.000512503
18 *110:16 *113:10 8.23457e-05
*RES
1 *838:X *113:6 12.055 
2 *113:6 *113:10 35.225 
3 *113:10 *928:A 23.85 
4 *113:6 *915:A 20.945 
*END

*D_NET *114 0.0185492
*CONN
*I *913:CLK I *D sky130_fd_sc_hd__dfrtp_4
*I *914:CLK I *D sky130_fd_sc_hd__dfrtp_4
*I *911:CLK I *D sky130_fd_sc_hd__dfrtp_4
*I *912:CLK I *D sky130_fd_sc_hd__dfrtp_4
*I *886:A I *D sky130_fd_sc_hd__xor2_1
*I *910:Q O *D sky130_fd_sc_hd__dfxtp_2
*CAP
1 *913:CLK 0.0032479
2 *914:CLK 3.35042e-05
3 *911:CLK 1.71066e-05
4 *912:CLK 0
5 *886:A 0.000982838
6 *910:Q 0.000434768
7 *114:22 0.00121039
8 *114:20 0.000673668
9 *114:18 0.0012326
10 *114:8 0.00445276
11 *886:A *831:A 0.000477605
12 *913:CLK *117:14 0.00126943
13 *114:8 *116:38 2.67022e-05
14 *114:8 *116:51 3.32053e-05
15 *114:18 *116:38 0.000387404
16 *825:A2 *114:18 0.000319941
17 *830:A *886:A 2.68111e-05
18 *830:A *114:20 0.000295109
19 *830:A *114:22 0.000281085
20 *831:B *886:A 0.000156284
21 *831:B *114:22 7.57422e-05
22 *845:B *114:18 0.000347943
23 *847:A *114:18 0.000346781
24 *851:A *913:CLK 4.82299e-05
25 *851:B *913:CLK 0.000206079
26 *852:B *913:CLK 0.000382531
27 *861:A1 *914:CLK 9.13235e-05
28 *876:C *886:A 0.000160338
29 *888:A *886:A 5.09431e-05
30 *908:D *114:20 0
31 *911:RESET_B *911:CLK 5.05521e-05
32 *914:D *914:CLK 0.000159179
33 *914:D *114:20 0.00031864
34 *914:D *114:22 0.000144172
35 *922:A *114:8 0.000329633
36 *34:10 *886:A 2.77225e-05
37 *64:8 *114:22 6.45236e-05
38 *74:16 *913:CLK 7.99917e-05
39 *85:40 *911:CLK 8.65961e-05
40 *90:73 *913:CLK 1.91597e-05
*RES
1 *910:Q *114:8 12.63 
2 *114:8 *114:18 22.465 
3 *114:18 *114:20 10.305 
4 *114:20 *114:22 6.225 
5 *114:22 *886:A 18.57 
6 *114:22 *912:CLK 3.6 
7 *114:20 *911:CLK 4.395 
8 *114:18 *914:CLK 5.085 
9 *114:8 *913:CLK 47.655 
*END

*D_NET *115 0.0282332
*CONN
*I *823:B I *D sky130_fd_sc_hd__or3_1
*I *835:C I *D sky130_fd_sc_hd__or3_1
*I *826:A I *D sky130_fd_sc_hd__xor2_1
*I *838:A1 I *D sky130_fd_sc_hd__a211o_1
*I *825:B1_N I *D sky130_fd_sc_hd__o21ba_1
*I *827:B I *D sky130_fd_sc_hd__nand3_1
*I *839:A1 I *D sky130_fd_sc_hd__o21ai_1
*I *828:A1 I *D sky130_fd_sc_hd__a21o_1
*I *911:Q O *D sky130_fd_sc_hd__dfrtp_4
*CAP
1 *823:B 0.000353119
2 *835:C 0.00077302
3 *826:A 0.000906468
4 *838:A1 0
5 *825:B1_N 0.000189135
6 *827:B 0
7 *839:A1 0.000262928
8 *828:A1 0.000167213
9 *911:Q 0
10 *115:77 0.00293679
11 *115:75 0.00207036
12 *115:64 0.000808121
13 *115:51 0.0010319
14 *115:18 0.000838214
15 *115:14 0.00076777
16 *115:6 0.000854277
17 *823:B *823:A 0.000207896
18 *826:A *826:B 0.000328877
19 *828:A1 *832:A2 8.33066e-06
20 *828:A1 *117:18 0.000325785
21 *839:A1 *117:16 0.00015155
22 *839:A1 *117:18 1.98158e-05
23 *115:14 *827:C 0.000382764
24 *115:14 *116:14 0.000312176
25 *115:18 *827:A 0.00188472
26 *115:64 *116:38 0.00107289
27 *115:75 *823:A 0.000444494
28 *115:75 *116:38 0.000288244
29 *115:75 *116:51 0.00129764
30 seg[4] *826:A 1.33293e-05
31 *839:A2 *839:A1 0.000127929
32 *839:B1 *839:A1 0.000428764
33 *843:A *835:C 0.000500141
34 *847:A *115:51 0.000403906
35 *849:A_N *115:77 0.000138129
36 *849:B *115:77 0.00031353
37 *850:A *115:14 0.000907091
38 *850:A *115:18 1.46744e-05
39 *861:A1 *825:B1_N 0.000242104
40 *861:A1 *115:51 0.000115351
41 *861:B1 *115:51 2.747e-05
42 *884:B *828:A1 0.000109423
43 *884:B *839:A1 5.48982e-05
44 *893:D *115:64 0.000783467
45 *893:D *115:75 0.000485304
46 *905:D *115:14 0.000132454
47 *905:D *115:51 6.73578e-05
48 *911:D *825:B1_N 4.77769e-05
49 *914:D *825:B1_N 4.77769e-05
50 *923:A *826:A 0.000141599
51 *923:A *835:C 0
52 *924:A *826:A 0.000257139
53 *925:A *826:A 9.28507e-05
54 *926:A *826:A 2.75145e-05
55 *28:12 *839:A1 1.41095e-05
56 *33:12 *835:C 0
57 *34:10 *115:14 0.000336571
58 *34:10 *115:51 0.00089525
59 *62:12 *823:B 3.27443e-05
60 *62:12 *115:77 0.000362698
61 *76:16 *115:77 7.61761e-05
62 *90:24 *839:A1 0.000688682
63 *94:23 *115:18 0.00166244
*RES
1 *911:Q *115:6 3.6 
2 *115:6 *115:14 14.675 
3 *115:14 *115:18 19.7 
4 *115:18 *828:A1 7.53 
5 *115:18 *839:A1 12.675 
6 *115:14 *827:B 1.6 
7 *115:6 *115:51 16.46 
8 *115:51 *825:B1_N 5.86 
9 *115:51 *115:64 14.6 
10 *115:64 *838:A1 3.6 
11 *115:64 *115:75 20.465 
12 *115:75 *115:77 22.53 
13 *115:77 *826:A 21.86 
14 *115:77 *835:C 19.985 
15 *115:75 *823:B 6.46 
*END

*D_NET *116 0.0236455
*CONN
*I *823:C I *D sky130_fd_sc_hd__or3_1
*I *826:B I *D sky130_fd_sc_hd__xor2_1
*I *837:A I *D sky130_fd_sc_hd__inv_2
*I *834:A3 I *D sky130_fd_sc_hd__o31ai_1
*I *828:A2 I *D sky130_fd_sc_hd__a21o_1
*I *827:C I *D sky130_fd_sc_hd__nand3_1
*I *912:Q O *D sky130_fd_sc_hd__dfrtp_4
*CAP
1 *823:C 0.000427384
2 *826:B 0.00127853
3 *837:A 0
4 *834:A3 3.69588e-05
5 *828:A2 0.00188106
6 *827:C 0.000198824
7 *912:Q 0.000215286
8 *116:53 0.00168466
9 *116:51 0.00126084
10 *116:38 0.00167661
11 *116:23 0.00309338
12 *116:14 0.00041411
13 *823:C *823:A 0
14 *828:A2 *831:A 0.000443927
15 *834:A3 *117:64 4.66108e-05
16 an[3] *823:C 3.00381e-05
17 an[4] *116:53 3.00381e-05
18 an[5] *116:53 3.00381e-05
19 an[6] *826:B 4.89295e-05
20 an[7] *826:B 4.99619e-05
21 seg[0] *826:B 4.99619e-05
22 seg[1] *826:B 4.99619e-05
23 seg[2] *826:B 8.64421e-05
24 seg[3] *826:B 4.99619e-05
25 seg[4] *826:B 0.000203178
26 *826:A *826:B 0.000328877
27 *831:B *828:A2 4.23008e-05
28 *842:B *828:A2 3.20857e-05
29 *876:C *828:A2 2.19562e-06
30 *878:A2 *116:38 0
31 *881:A1 *828:A2 0.000101164
32 *881:A1 *116:38 8.32864e-05
33 *882:B *116:38 0.00082241
34 *884:A *828:A2 0.000169112
35 *884:B *828:A2 0.000115351
36 *888:A *828:A2 0
37 *888:A *116:14 0.000160707
38 *888:A *116:38 0
39 *903:D *116:38 4.20483e-05
40 *905:CLK *116:14 0.00018605
41 *912:RESET_B *116:14 3.14932e-05
42 *914:D *828:A2 0.000342602
43 *922:A *826:B 0.000980959
44 *922:A *116:51 0.00134909
45 *922:A *116:53 0.00107961
46 *924:A *826:B 0.000430813
47 *925:A *826:B 0.00016031
48 *926:A *826:B 4.82863e-05
49 *91:8 *116:14 4.90227e-05
50 *104:10 *116:38 0
51 *114:8 *116:38 2.67022e-05
52 *114:8 *116:51 3.32053e-05
53 *114:18 *116:38 0.000387404
54 *115:14 *827:C 0.000382764
55 *115:14 *116:14 0.000312176
56 *115:64 *116:38 0.00107289
57 *115:75 *116:38 0.000288244
58 *115:75 *116:51 0.00129764
*RES
1 *912:Q *116:14 11.15 
2 *116:14 *827:C 5.155 
3 *116:14 *116:23 2 
4 *116:23 *828:A2 29.13 
5 *116:23 *116:38 30.45 
6 *116:38 *834:A3 4.05 
7 *116:38 *116:51 19.19 
8 *116:51 *116:53 10.11 
9 *116:53 *837:A 1.6 
10 *116:53 *826:B 28.21 
11 *116:51 *823:C 12.245 
*END

*D_NET *117 0.0252923
*CONN
*I *822:A I *D sky130_fd_sc_hd__inv_2
*I *838:C1 I *D sky130_fd_sc_hd__a211o_1
*I *834:A2 I *D sky130_fd_sc_hd__o31ai_1
*I *835:B I *D sky130_fd_sc_hd__or3_1
*I *827:A I *D sky130_fd_sc_hd__nand3_1
*I *828:B1 I *D sky130_fd_sc_hd__a21o_1
*I *832:A2 I *D sky130_fd_sc_hd__o21ai_2
*I *913:Q O *D sky130_fd_sc_hd__dfrtp_4
*CAP
1 *822:A 0.00114854
2 *838:C1 0.000329319
3 *834:A2 0
4 *835:B 0
5 *827:A 0.000350656
6 *828:B1 2.10806e-05
7 *832:A2 0.000111984
8 *913:Q 0.00136605
9 *117:71 0.00168969
10 *117:64 0.00174569
11 *117:53 0.00161897
12 *117:18 0.000271037
13 *117:16 0.00143811
14 *117:14 0.00240065
15 *828:A1 *832:A2 8.33066e-06
16 *828:A1 *117:18 0.000325785
17 *833:A *117:64 0.00013802
18 *833:A *117:71 0.00029599
19 *834:A3 *117:64 4.66108e-05
20 *839:A1 *117:16 0.00015155
21 *839:A1 *117:18 1.98158e-05
22 *842:B *828:B1 4.77769e-05
23 *843:A *117:16 0.000849503
24 *843:A *117:53 0.000137571
25 *850:A *827:A 0.00116631
26 *852:A *117:14 0.000121019
27 *853:A2 *117:14 0.000843571
28 *876:C *832:A2 3.72081e-05
29 *876:D *832:A2 4.77807e-05
30 *884:B *117:16 0
31 *913:CLK *117:14 0.00126943
32 *916:A *117:16 9.5799e-06
33 *28:12 *117:16 0.000748692
34 *34:10 *838:C1 0.000179285
35 *57:25 *827:A 0.000442616
36 *62:12 *822:A 4.77757e-05
37 *63:18 *822:A 0
38 *63:18 *838:C1 0.000130556
39 *67:10 *832:A2 5.2844e-05
40 *67:10 *117:16 5.56272e-05
41 *67:10 *117:18 0.0001236
42 *67:27 *117:16 0.000864901
43 *67:27 *117:53 5.12859e-05
44 *67:27 *117:64 0.000297576
45 *67:29 *117:64 0.000675219
46 *74:16 *117:14 0.000366237
47 *77:10 *117:14 0.000446486
48 *94:23 *827:A 1.91597e-05
49 *96:8 *117:53 4.66108e-05
50 *96:8 *117:64 0.000610918
51 *97:27 *822:A 0.000227068
52 *112:8 *117:71 1.34503e-05
53 *115:18 *827:A 0.00188472
*RES
1 *913:Q *117:14 34.455 
2 *117:14 *117:16 28.665 
3 *117:16 *117:18 4.185 
4 *117:18 *832:A2 5.94 
5 *117:18 *828:B1 4.05 
6 *117:16 *827:A 21.3 
7 *117:14 *117:53 4.085 
8 *117:53 *835:B 1.6 
9 *117:53 *117:64 23.1675 
10 *117:64 *834:A2 1.6 
11 *117:64 *117:71 3.7275 
12 *117:71 *838:C1 12.485 
13 *117:71 *822:A 24.245 
*END

*D_NET *118 0.0212817
*CONN
*I *823:A I *D sky130_fd_sc_hd__or3_1
*I *834:A1 I *D sky130_fd_sc_hd__o31ai_1
*I *838:B1 I *D sky130_fd_sc_hd__a211o_1
*I *835:A I *D sky130_fd_sc_hd__or3_1
*I *831:A I *D sky130_fd_sc_hd__xnor2_1
*I *832:A1 I *D sky130_fd_sc_hd__o21ai_2
*I *914:Q O *D sky130_fd_sc_hd__dfrtp_4
*CAP
1 *823:A 0.000737756
2 *834:A1 0
3 *838:B1 0.000214796
4 *835:A 0.00081606
5 *831:A 0.000442898
6 *832:A1 0.000659733
7 *914:Q 3.19688e-05
8 *118:61 0.00281374
9 *118:44 0.00344408
10 *118:12 0.001671
11 *118:6 0.00136717
12 *823:B *823:A 0.000207896
13 *823:C *823:A 0
14 *828:A2 *831:A 0.000443927
15 *831:B *831:A 0.00060641
16 *841:A *118:44 1.88656e-05
17 *843:A *835:A 2.05571e-05
18 *861:A1 *118:6 3.75126e-05
19 *865:A *118:44 0.000695972
20 *865:B *118:44 0.000641552
21 *867:A *118:12 0.000350579
22 *867:B *118:12 1.95461e-05
23 *876:C *831:A 0.000634505
24 *876:D *832:A1 2.38055e-05
25 *878:A1 *832:A1 0.000287661
26 *885:C *832:A1 0.000111293
27 *886:A *831:A 0.000477605
28 *893:D *823:A 6.57946e-05
29 *893:D *838:B1 0.000202925
30 *918:A *118:44 9.28053e-05
31 *34:10 *823:A 0
32 *34:10 *838:B1 0
33 *51:10 *118:12 4.84472e-05
34 *62:12 *823:A 0.000211757
35 *74:70 *118:12 0.000646959
36 *74:70 *118:44 0.000296986
37 *80:10 *832:A1 7.32083e-05
38 *80:10 *118:12 0.00013591
39 *87:20 *118:44 8.07557e-05
40 *95:10 *832:A1 8.33066e-06
41 *95:10 *118:12 0.00153112
42 *103:27 *118:6 4.77757e-05
43 *103:27 *118:12 8.23457e-05
44 *103:31 *118:44 0.000490116
45 *105:49 *835:A 4.51281e-05
46 *115:75 *823:A 0.000444494
*RES
1 *914:Q *118:6 2.395 
2 *118:6 *118:12 21.26 
3 *118:12 *832:A1 13.53 
4 *118:12 *831:A 20.265 
5 *118:6 *118:44 17.2933 
6 *118:44 *835:A 5.62323 
7 *118:44 *118:61 3.13087 
8 *118:61 *838:B1 8.235 
9 *118:61 *834:A1 3.6 
10 *118:61 *823:A 21.195 
*END
