*SPEF "ieee 1481-1999"
*DESIGN "TopZeroToFive"
*DATE "10:40:29 Sunday May 25, 2025"
*VENDOR "The OpenROAD Project"
*PROGRAM "OpenROAD"
*VERSION "b16bda7e82721d10566ff7e2b68f1ff0be9f9e38"
*DESIGN_FLOW "NAME_SCOPE LOCAL" "PIN_CAP NONE"
*DIVIDER /
*DELIMITER :
*BUS_DELIMITER []
*T_UNIT 1 NS
*C_UNIT 1 PF
*R_UNIT 1 OHM
*L_UNIT 1 HENRY

*NAME_MAP
*3 net9
*4 net10
*5 net11
*6 net12
*7 net13
*8 net14
*9 net15
*10 net16
*11 btnC
*12 clk
*13 seg[0]
*14 seg[1]
*15 seg[2]
*16 seg[3]
*17 seg[4]
*18 seg[5]
*19 seg[6]
*20 _000_
*21 _001_
*22 _002_
*23 _003_
*24 _004_
*25 _005_
*26 _006_
*27 _007_
*28 _008_
*29 _009_
*30 _010_
*31 _011_
*32 _012_
*33 _013_
*34 _014_
*35 _015_
*36 _016_
*37 _017_
*38 _018_
*39 _019_
*40 _020_
*41 _021_
*42 _022_
*43 _023_
*44 _024_
*45 _025_
*46 _026_
*47 _027_
*48 _028_
*49 _029_
*50 _030_
*51 _031_
*52 _032_
*53 _033_
*54 _034_
*55 _035_
*56 _036_
*57 _037_
*58 _038_
*59 _039_
*60 _040_
*61 _041_
*62 _042_
*63 _043_
*64 _044_
*65 _045_
*66 _046_
*67 _047_
*68 _048_
*69 _049_
*70 _050_
*71 _051_
*72 _052_
*73 _053_
*74 _054_
*75 _055_
*76 _056_
*77 _057_
*78 _058_
*79 _059_
*80 _060_
*81 _061_
*82 _062_
*83 clknet_0_clk
*84 clknet_1_0__leaf_clk
*85 clknet_1_1__leaf_clk
*86 div_cntr\[0\]
*87 div_cntr\[10\]
*88 div_cntr\[11\]
*89 div_cntr\[12\]
*90 div_cntr\[13\]
*91 div_cntr\[14\]
*92 div_cntr\[15\]
*93 div_cntr\[16\]
*94 div_cntr\[17\]
*95 div_cntr\[18\]
*96 div_cntr\[1\]
*97 div_cntr\[2\]
*98 div_cntr\[3\]
*99 div_cntr\[4\]
*100 div_cntr\[5\]
*101 div_cntr\[6\]
*102 div_cntr\[7\]
*103 div_cntr\[8\]
*104 div_cntr\[9\]
*105 net1
*106 net17
*107 net2
*108 net3
*109 net4
*110 net5
*111 net6
*112 net7
*113 net8
*114 u_cnt\.clk
*115 u_cnt\.count\[0\]
*116 u_cnt\.count\[1\]
*117 u_cnt\.count\[2\]
*118 u_cnt\.count\[3\]
*119 ANTENNA_1
*120 ANTENNA_2
*121 FILLER_0_0_109
*122 FILLER_0_0_113
*123 FILLER_0_0_128
*124 FILLER_0_0_141
*125 FILLER_0_0_15
*126 FILLER_0_0_153
*127 FILLER_0_0_165
*128 FILLER_0_0_169
*129 FILLER_0_0_181
*130 FILLER_0_0_189
*131 FILLER_0_0_27
*132 FILLER_0_0_29
*133 FILLER_0_0_3
*134 FILLER_0_0_41
*135 FILLER_0_0_53
*136 FILLER_0_0_57
*137 FILLER_0_0_69
*138 FILLER_0_0_81
*139 FILLER_0_0_85
*140 FILLER_0_0_97
*141 FILLER_0_10_109
*142 FILLER_0_10_121
*143 FILLER_0_10_125
*144 FILLER_0_10_137
*145 FILLER_0_10_141
*146 FILLER_0_10_15
*147 FILLER_0_10_153
*148 FILLER_0_10_165
*149 FILLER_0_10_173
*150 FILLER_0_10_181
*151 FILLER_0_10_189
*152 FILLER_0_10_27
*153 FILLER_0_10_29
*154 FILLER_0_10_3
*155 FILLER_0_10_41
*156 FILLER_0_10_53
*157 FILLER_0_10_65
*158 FILLER_0_10_77
*159 FILLER_0_10_83
*160 FILLER_0_10_85
*161 FILLER_0_10_97
*162 FILLER_0_11_113
*163 FILLER_0_11_148
*164 FILLER_0_11_15
*165 FILLER_0_11_164
*166 FILLER_0_11_169
*167 FILLER_0_11_181
*168 FILLER_0_11_189
*169 FILLER_0_11_27
*170 FILLER_0_11_3
*171 FILLER_0_11_39
*172 FILLER_0_11_51
*173 FILLER_0_11_55
*174 FILLER_0_11_57
*175 FILLER_0_11_69
*176 FILLER_0_11_81
*177 FILLER_0_11_93
*178 FILLER_0_12_109
*179 FILLER_0_12_121
*180 FILLER_0_12_133
*181 FILLER_0_12_139
*182 FILLER_0_12_141
*183 FILLER_0_12_15
*184 FILLER_0_12_163
*185 FILLER_0_12_175
*186 FILLER_0_12_187
*187 FILLER_0_12_27
*188 FILLER_0_12_29
*189 FILLER_0_12_3
*190 FILLER_0_12_37
*191 FILLER_0_12_47
*192 FILLER_0_12_59
*193 FILLER_0_12_71
*194 FILLER_0_12_83
*195 FILLER_0_12_85
*196 FILLER_0_12_97
*197 FILLER_0_13_104
*198 FILLER_0_13_113
*199 FILLER_0_13_138
*200 FILLER_0_13_150
*201 FILLER_0_13_162
*202 FILLER_0_13_169
*203 FILLER_0_13_175
*204 FILLER_0_13_183
*205 FILLER_0_13_189
*206 FILLER_0_13_24
*207 FILLER_0_13_3
*208 FILLER_0_13_30
*209 FILLER_0_13_39
*210 FILLER_0_13_54
*211 FILLER_0_13_57
*212 FILLER_0_13_64
*213 FILLER_0_13_68
*214 FILLER_0_13_7
*215 FILLER_0_13_72
*216 FILLER_0_13_84
*217 FILLER_0_13_96
*218 FILLER_0_14_113
*219 FILLER_0_14_125
*220 FILLER_0_14_132
*221 FILLER_0_14_141
*222 FILLER_0_14_153
*223 FILLER_0_14_165
*224 FILLER_0_14_177
*225 FILLER_0_14_189
*226 FILLER_0_14_23
*227 FILLER_0_14_27
*228 FILLER_0_14_29
*229 FILLER_0_14_3
*230 FILLER_0_14_41
*231 FILLER_0_14_53
*232 FILLER_0_14_57
*233 FILLER_0_14_81
*234 FILLER_0_14_85
*235 FILLER_0_15_105
*236 FILLER_0_15_111
*237 FILLER_0_15_113
*238 FILLER_0_15_125
*239 FILLER_0_15_137
*240 FILLER_0_15_149
*241 FILLER_0_15_15
*242 FILLER_0_15_161
*243 FILLER_0_15_167
*244 FILLER_0_15_169
*245 FILLER_0_15_181
*246 FILLER_0_15_189
*247 FILLER_0_15_27
*248 FILLER_0_15_3
*249 FILLER_0_15_39
*250 FILLER_0_15_51
*251 FILLER_0_15_55
*252 FILLER_0_15_57
*253 FILLER_0_15_69
*254 FILLER_0_15_81
*255 FILLER_0_15_93
*256 FILLER_0_16_109
*257 FILLER_0_16_115
*258 FILLER_0_16_132
*259 FILLER_0_16_141
*260 FILLER_0_16_15
*261 FILLER_0_16_153
*262 FILLER_0_16_165
*263 FILLER_0_16_177
*264 FILLER_0_16_189
*265 FILLER_0_16_27
*266 FILLER_0_16_29
*267 FILLER_0_16_3
*268 FILLER_0_16_41
*269 FILLER_0_16_53
*270 FILLER_0_16_65
*271 FILLER_0_16_77
*272 FILLER_0_16_83
*273 FILLER_0_16_85
*274 FILLER_0_16_97
*275 FILLER_0_17_101
*276 FILLER_0_17_109
*277 FILLER_0_17_113
*278 FILLER_0_17_125
*279 FILLER_0_17_137
*280 FILLER_0_17_149
*281 FILLER_0_17_160
*282 FILLER_0_17_169
*283 FILLER_0_17_17
*284 FILLER_0_17_181
*285 FILLER_0_17_189
*286 FILLER_0_17_29
*287 FILLER_0_17_3
*288 FILLER_0_17_41
*289 FILLER_0_17_53
*290 FILLER_0_17_57
*291 FILLER_0_17_69
*292 FILLER_0_17_77
*293 FILLER_0_17_89
*294 FILLER_0_17_9
*295 FILLER_0_18_109
*296 FILLER_0_18_121
*297 FILLER_0_18_129
*298 FILLER_0_18_137
*299 FILLER_0_18_141
*300 FILLER_0_18_153
*301 FILLER_0_18_165
*302 FILLER_0_18_177
*303 FILLER_0_18_189
*304 FILLER_0_18_29
*305 FILLER_0_18_3
*306 FILLER_0_18_41
*307 FILLER_0_18_53
*308 FILLER_0_18_65
*309 FILLER_0_18_74
*310 FILLER_0_18_82
*311 FILLER_0_18_85
*312 FILLER_0_18_97
*313 FILLER_0_19_108
*314 FILLER_0_19_113
*315 FILLER_0_19_125
*316 FILLER_0_19_137
*317 FILLER_0_19_149
*318 FILLER_0_19_15
*319 FILLER_0_19_153
*320 FILLER_0_19_160
*321 FILLER_0_19_164
*322 FILLER_0_19_169
*323 FILLER_0_19_181
*324 FILLER_0_19_189
*325 FILLER_0_19_27
*326 FILLER_0_19_3
*327 FILLER_0_19_39
*328 FILLER_0_19_51
*329 FILLER_0_19_55
*330 FILLER_0_19_57
*331 FILLER_0_19_69
*332 FILLER_0_19_96
*333 FILLER_0_1_113
*334 FILLER_0_1_125
*335 FILLER_0_1_133
*336 FILLER_0_1_141
*337 FILLER_0_1_15
*338 FILLER_0_1_157
*339 FILLER_0_1_165
*340 FILLER_0_1_169
*341 FILLER_0_1_181
*342 FILLER_0_1_189
*343 FILLER_0_1_27
*344 FILLER_0_1_3
*345 FILLER_0_1_34
*346 FILLER_0_1_42
*347 FILLER_0_1_50
*348 FILLER_0_1_57
*349 FILLER_0_1_69
*350 FILLER_0_1_81
*351 FILLER_0_1_87
*352 FILLER_0_1_95
*353 FILLER_0_20_104
*354 FILLER_0_20_133
*355 FILLER_0_20_139
*356 FILLER_0_20_144
*357 FILLER_0_20_15
*358 FILLER_0_20_156
*359 FILLER_0_20_168
*360 FILLER_0_20_180
*361 FILLER_0_20_188
*362 FILLER_0_20_21
*363 FILLER_0_20_27
*364 FILLER_0_20_29
*365 FILLER_0_20_3
*366 FILLER_0_20_41
*367 FILLER_0_20_53
*368 FILLER_0_20_65
*369 FILLER_0_20_77
*370 FILLER_0_20_83
*371 FILLER_0_20_85
*372 FILLER_0_20_97
*373 FILLER_0_21_113
*374 FILLER_0_21_117
*375 FILLER_0_21_135
*376 FILLER_0_21_147
*377 FILLER_0_21_15
*378 FILLER_0_21_159
*379 FILLER_0_21_167
*380 FILLER_0_21_169
*381 FILLER_0_21_181
*382 FILLER_0_21_189
*383 FILLER_0_21_23
*384 FILLER_0_21_28
*385 FILLER_0_21_3
*386 FILLER_0_21_40
*387 FILLER_0_21_52
*388 FILLER_0_21_57
*389 FILLER_0_21_69
*390 FILLER_0_21_81
*391 FILLER_0_21_93
*392 FILLER_0_22_109
*393 FILLER_0_22_121
*394 FILLER_0_22_133
*395 FILLER_0_22_139
*396 FILLER_0_22_141
*397 FILLER_0_22_15
*398 FILLER_0_22_153
*399 FILLER_0_22_165
*400 FILLER_0_22_177
*401 FILLER_0_22_189
*402 FILLER_0_22_27
*403 FILLER_0_22_29
*404 FILLER_0_22_3
*405 FILLER_0_22_41
*406 FILLER_0_22_49
*407 FILLER_0_22_57
*408 FILLER_0_22_68
*409 FILLER_0_22_80
*410 FILLER_0_22_85
*411 FILLER_0_22_97
*412 FILLER_0_23_113
*413 FILLER_0_23_125
*414 FILLER_0_23_137
*415 FILLER_0_23_149
*416 FILLER_0_23_15
*417 FILLER_0_23_169
*418 FILLER_0_23_181
*419 FILLER_0_23_189
*420 FILLER_0_23_22
*421 FILLER_0_23_3
*422 FILLER_0_23_34
*423 FILLER_0_23_46
*424 FILLER_0_23_54
*425 FILLER_0_23_62
*426 FILLER_0_23_74
*427 FILLER_0_23_86
*428 FILLER_0_23_94
*429 FILLER_0_24_109
*430 FILLER_0_24_121
*431 FILLER_0_24_133
*432 FILLER_0_24_139
*433 FILLER_0_24_141
*434 FILLER_0_24_15
*435 FILLER_0_24_153
*436 FILLER_0_24_165
*437 FILLER_0_24_177
*438 FILLER_0_24_189
*439 FILLER_0_24_27
*440 FILLER_0_24_29
*441 FILLER_0_24_3
*442 FILLER_0_24_41
*443 FILLER_0_24_45
*444 FILLER_0_24_70
*445 FILLER_0_24_82
*446 FILLER_0_24_85
*447 FILLER_0_24_97
*448 FILLER_0_25_109
*449 FILLER_0_25_113
*450 FILLER_0_25_125
*451 FILLER_0_25_137
*452 FILLER_0_25_149
*453 FILLER_0_25_15
*454 FILLER_0_25_161
*455 FILLER_0_25_167
*456 FILLER_0_25_169
*457 FILLER_0_25_181
*458 FILLER_0_25_189
*459 FILLER_0_25_27
*460 FILLER_0_25_3
*461 FILLER_0_25_39
*462 FILLER_0_25_51
*463 FILLER_0_25_55
*464 FILLER_0_25_73
*465 FILLER_0_25_85
*466 FILLER_0_25_97
*467 FILLER_0_26_109
*468 FILLER_0_26_115
*469 FILLER_0_26_122
*470 FILLER_0_26_134
*471 FILLER_0_26_141
*472 FILLER_0_26_15
*473 FILLER_0_26_153
*474 FILLER_0_26_165
*475 FILLER_0_26_172
*476 FILLER_0_26_178
*477 FILLER_0_26_182
*478 FILLER_0_26_27
*479 FILLER_0_26_29
*480 FILLER_0_26_3
*481 FILLER_0_26_41
*482 FILLER_0_26_53
*483 FILLER_0_26_65
*484 FILLER_0_26_77
*485 FILLER_0_26_83
*486 FILLER_0_26_85
*487 FILLER_0_26_97
*488 FILLER_0_27_100
*489 FILLER_0_27_108
*490 FILLER_0_27_11
*491 FILLER_0_27_113
*492 FILLER_0_27_127
*493 FILLER_0_27_136
*494 FILLER_0_27_141
*495 FILLER_0_27_148
*496 FILLER_0_27_156
*497 FILLER_0_27_160
*498 FILLER_0_27_17
*499 FILLER_0_27_172
*500 FILLER_0_27_180
*501 FILLER_0_27_184
*502 FILLER_0_27_29
*503 FILLER_0_27_3
*504 FILLER_0_27_40
*505 FILLER_0_27_48
*506 FILLER_0_27_60
*507 FILLER_0_27_64
*508 FILLER_0_27_72
*509 FILLER_0_27_76
*510 FILLER_0_27_88
*511 FILLER_0_27_96
*512 FILLER_0_2_104
*513 FILLER_0_2_116
*514 FILLER_0_2_128
*515 FILLER_0_2_141
*516 FILLER_0_2_15
*517 FILLER_0_2_153
*518 FILLER_0_2_167
*519 FILLER_0_2_171
*520 FILLER_0_2_179
*521 FILLER_0_2_187
*522 FILLER_0_2_27
*523 FILLER_0_2_29
*524 FILLER_0_2_3
*525 FILLER_0_2_41
*526 FILLER_0_2_53
*527 FILLER_0_2_65
*528 FILLER_0_2_77
*529 FILLER_0_2_83
*530 FILLER_0_2_85
*531 FILLER_0_2_94
*532 FILLER_0_3_102
*533 FILLER_0_3_110
*534 FILLER_0_3_113
*535 FILLER_0_3_125
*536 FILLER_0_3_137
*537 FILLER_0_3_141
*538 FILLER_0_3_15
*539 FILLER_0_3_166
*540 FILLER_0_3_185
*541 FILLER_0_3_189
*542 FILLER_0_3_27
*543 FILLER_0_3_3
*544 FILLER_0_3_40
*545 FILLER_0_3_52
*546 FILLER_0_3_57
*547 FILLER_0_3_69
*548 FILLER_0_3_81
*549 FILLER_0_3_90
*550 FILLER_0_4_109
*551 FILLER_0_4_121
*552 FILLER_0_4_133
*553 FILLER_0_4_139
*554 FILLER_0_4_141
*555 FILLER_0_4_146
*556 FILLER_0_4_15
*557 FILLER_0_4_158
*558 FILLER_0_4_170
*559 FILLER_0_4_178
*560 FILLER_0_4_183
*561 FILLER_0_4_189
*562 FILLER_0_4_27
*563 FILLER_0_4_3
*564 FILLER_0_4_45
*565 FILLER_0_4_57
*566 FILLER_0_4_69
*567 FILLER_0_4_81
*568 FILLER_0_4_85
*569 FILLER_0_4_97
*570 FILLER_0_5_102
*571 FILLER_0_5_11
*572 FILLER_0_5_110
*573 FILLER_0_5_113
*574 FILLER_0_5_120
*575 FILLER_0_5_132
*576 FILLER_0_5_144
*577 FILLER_0_5_150
*578 FILLER_0_5_157
*579 FILLER_0_5_165
*580 FILLER_0_5_169
*581 FILLER_0_5_177
*582 FILLER_0_5_183
*583 FILLER_0_5_189
*584 FILLER_0_5_19
*585 FILLER_0_5_3
*586 FILLER_0_5_31
*587 FILLER_0_5_43
*588 FILLER_0_5_53
*589 FILLER_0_5_57
*590 FILLER_0_5_69
*591 FILLER_0_5_73
*592 FILLER_0_5_78
*593 FILLER_0_5_90
*594 FILLER_0_6_117
*595 FILLER_0_6_129
*596 FILLER_0_6_137
*597 FILLER_0_6_141
*598 FILLER_0_6_15
*599 FILLER_0_6_168
*600 FILLER_0_6_180
*601 FILLER_0_6_188
*602 FILLER_0_6_27
*603 FILLER_0_6_29
*604 FILLER_0_6_3
*605 FILLER_0_6_41
*606 FILLER_0_6_53
*607 FILLER_0_6_61
*608 FILLER_0_6_79
*609 FILLER_0_6_83
*610 FILLER_0_6_85
*611 FILLER_0_6_97
*612 FILLER_0_7_101
*613 FILLER_0_7_109
*614 FILLER_0_7_113
*615 FILLER_0_7_125
*616 FILLER_0_7_137
*617 FILLER_0_7_143
*618 FILLER_0_7_15
*619 FILLER_0_7_154
*620 FILLER_0_7_166
*621 FILLER_0_7_169
*622 FILLER_0_7_178
*623 FILLER_0_7_182
*624 FILLER_0_7_27
*625 FILLER_0_7_3
*626 FILLER_0_7_39
*627 FILLER_0_7_51
*628 FILLER_0_7_55
*629 FILLER_0_7_65
*630 FILLER_0_7_77
*631 FILLER_0_7_89
*632 FILLER_0_8_121
*633 FILLER_0_8_133
*634 FILLER_0_8_139
*635 FILLER_0_8_141
*636 FILLER_0_8_15
*637 FILLER_0_8_165
*638 FILLER_0_8_177
*639 FILLER_0_8_189
*640 FILLER_0_8_27
*641 FILLER_0_8_29
*642 FILLER_0_8_3
*643 FILLER_0_8_41
*644 FILLER_0_8_49
*645 FILLER_0_8_85
*646 FILLER_0_8_97
*647 FILLER_0_9_103
*648 FILLER_0_9_107
*649 FILLER_0_9_111
*650 FILLER_0_9_113
*651 FILLER_0_9_125
*652 FILLER_0_9_138
*653 FILLER_0_9_144
*654 FILLER_0_9_148
*655 FILLER_0_9_160
*656 FILLER_0_9_169
*657 FILLER_0_9_17
*658 FILLER_0_9_181
*659 FILLER_0_9_189
*660 FILLER_0_9_29
*661 FILLER_0_9_3
*662 FILLER_0_9_41
*663 FILLER_0_9_53
*664 FILLER_0_9_57
*665 FILLER_0_9_69
*666 FILLER_0_9_81
*667 FILLER_0_9_95
*668 PHY_EDGE_ROW_0_Left_28
*669 PHY_EDGE_ROW_0_Right_0
*670 PHY_EDGE_ROW_10_Left_38
*671 PHY_EDGE_ROW_10_Right_10
*672 PHY_EDGE_ROW_11_Left_39
*673 PHY_EDGE_ROW_11_Right_11
*674 PHY_EDGE_ROW_12_Left_40
*675 PHY_EDGE_ROW_12_Right_12
*676 PHY_EDGE_ROW_13_Left_41
*677 PHY_EDGE_ROW_13_Right_13
*678 PHY_EDGE_ROW_14_Left_42
*679 PHY_EDGE_ROW_14_Right_14
*680 PHY_EDGE_ROW_15_Left_43
*681 PHY_EDGE_ROW_15_Right_15
*682 PHY_EDGE_ROW_16_Left_44
*683 PHY_EDGE_ROW_16_Right_16
*684 PHY_EDGE_ROW_17_Left_45
*685 PHY_EDGE_ROW_17_Right_17
*686 PHY_EDGE_ROW_18_Left_46
*687 PHY_EDGE_ROW_18_Right_18
*688 PHY_EDGE_ROW_19_Left_47
*689 PHY_EDGE_ROW_19_Right_19
*690 PHY_EDGE_ROW_1_Left_29
*691 PHY_EDGE_ROW_1_Right_1
*692 PHY_EDGE_ROW_20_Left_48
*693 PHY_EDGE_ROW_20_Right_20
*694 PHY_EDGE_ROW_21_Left_49
*695 PHY_EDGE_ROW_21_Right_21
*696 PHY_EDGE_ROW_22_Left_50
*697 PHY_EDGE_ROW_22_Right_22
*698 PHY_EDGE_ROW_23_Left_51
*699 PHY_EDGE_ROW_23_Right_23
*700 PHY_EDGE_ROW_24_Left_52
*701 PHY_EDGE_ROW_24_Right_24
*702 PHY_EDGE_ROW_25_Left_53
*703 PHY_EDGE_ROW_25_Right_25
*704 PHY_EDGE_ROW_26_Left_54
*705 PHY_EDGE_ROW_26_Right_26
*706 PHY_EDGE_ROW_27_Left_55
*707 PHY_EDGE_ROW_27_Right_27
*708 PHY_EDGE_ROW_2_Left_30
*709 PHY_EDGE_ROW_2_Right_2
*710 PHY_EDGE_ROW_3_Left_31
*711 PHY_EDGE_ROW_3_Right_3
*712 PHY_EDGE_ROW_4_Left_32
*713 PHY_EDGE_ROW_4_Right_4
*714 PHY_EDGE_ROW_5_Left_33
*715 PHY_EDGE_ROW_5_Right_5
*716 PHY_EDGE_ROW_6_Left_34
*717 PHY_EDGE_ROW_6_Right_6
*718 PHY_EDGE_ROW_7_Left_35
*719 PHY_EDGE_ROW_7_Right_7
*720 PHY_EDGE_ROW_8_Left_36
*721 PHY_EDGE_ROW_8_Right_8
*722 PHY_EDGE_ROW_9_Left_37
*723 PHY_EDGE_ROW_9_Right_9
*724 TAP_TAPCELL_ROW_0_56
*725 TAP_TAPCELL_ROW_0_57
*726 TAP_TAPCELL_ROW_0_58
*727 TAP_TAPCELL_ROW_0_59
*728 TAP_TAPCELL_ROW_0_60
*729 TAP_TAPCELL_ROW_0_61
*730 TAP_TAPCELL_ROW_10_89
*731 TAP_TAPCELL_ROW_10_90
*732 TAP_TAPCELL_ROW_10_91
*733 TAP_TAPCELL_ROW_11_92
*734 TAP_TAPCELL_ROW_11_93
*735 TAP_TAPCELL_ROW_11_94
*736 TAP_TAPCELL_ROW_12_95
*737 TAP_TAPCELL_ROW_12_96
*738 TAP_TAPCELL_ROW_12_97
*739 TAP_TAPCELL_ROW_13_100
*740 TAP_TAPCELL_ROW_13_98
*741 TAP_TAPCELL_ROW_13_99
*742 TAP_TAPCELL_ROW_14_101
*743 TAP_TAPCELL_ROW_14_102
*744 TAP_TAPCELL_ROW_14_103
*745 TAP_TAPCELL_ROW_15_104
*746 TAP_TAPCELL_ROW_15_105
*747 TAP_TAPCELL_ROW_15_106
*748 TAP_TAPCELL_ROW_16_107
*749 TAP_TAPCELL_ROW_16_108
*750 TAP_TAPCELL_ROW_16_109
*751 TAP_TAPCELL_ROW_17_110
*752 TAP_TAPCELL_ROW_17_111
*753 TAP_TAPCELL_ROW_17_112
*754 TAP_TAPCELL_ROW_18_113
*755 TAP_TAPCELL_ROW_18_114
*756 TAP_TAPCELL_ROW_18_115
*757 TAP_TAPCELL_ROW_19_116
*758 TAP_TAPCELL_ROW_19_117
*759 TAP_TAPCELL_ROW_19_118
*760 TAP_TAPCELL_ROW_1_62
*761 TAP_TAPCELL_ROW_1_63
*762 TAP_TAPCELL_ROW_1_64
*763 TAP_TAPCELL_ROW_20_119
*764 TAP_TAPCELL_ROW_20_120
*765 TAP_TAPCELL_ROW_20_121
*766 TAP_TAPCELL_ROW_21_122
*767 TAP_TAPCELL_ROW_21_123
*768 TAP_TAPCELL_ROW_21_124
*769 TAP_TAPCELL_ROW_22_125
*770 TAP_TAPCELL_ROW_22_126
*771 TAP_TAPCELL_ROW_22_127
*772 TAP_TAPCELL_ROW_23_128
*773 TAP_TAPCELL_ROW_23_129
*774 TAP_TAPCELL_ROW_23_130
*775 TAP_TAPCELL_ROW_24_131
*776 TAP_TAPCELL_ROW_24_132
*777 TAP_TAPCELL_ROW_24_133
*778 TAP_TAPCELL_ROW_25_134
*779 TAP_TAPCELL_ROW_25_135
*780 TAP_TAPCELL_ROW_25_136
*781 TAP_TAPCELL_ROW_26_137
*782 TAP_TAPCELL_ROW_26_138
*783 TAP_TAPCELL_ROW_26_139
*784 TAP_TAPCELL_ROW_27_140
*785 TAP_TAPCELL_ROW_27_141
*786 TAP_TAPCELL_ROW_27_142
*787 TAP_TAPCELL_ROW_27_143
*788 TAP_TAPCELL_ROW_27_144
*789 TAP_TAPCELL_ROW_27_145
*790 TAP_TAPCELL_ROW_2_65
*791 TAP_TAPCELL_ROW_2_66
*792 TAP_TAPCELL_ROW_2_67
*793 TAP_TAPCELL_ROW_3_68
*794 TAP_TAPCELL_ROW_3_69
*795 TAP_TAPCELL_ROW_3_70
*796 TAP_TAPCELL_ROW_4_71
*797 TAP_TAPCELL_ROW_4_72
*798 TAP_TAPCELL_ROW_4_73
*799 TAP_TAPCELL_ROW_5_74
*800 TAP_TAPCELL_ROW_5_75
*801 TAP_TAPCELL_ROW_5_76
*802 TAP_TAPCELL_ROW_6_77
*803 TAP_TAPCELL_ROW_6_78
*804 TAP_TAPCELL_ROW_6_79
*805 TAP_TAPCELL_ROW_7_80
*806 TAP_TAPCELL_ROW_7_81
*807 TAP_TAPCELL_ROW_7_82
*808 TAP_TAPCELL_ROW_8_83
*809 TAP_TAPCELL_ROW_8_84
*810 TAP_TAPCELL_ROW_8_85
*811 TAP_TAPCELL_ROW_9_86
*812 TAP_TAPCELL_ROW_9_87
*813 TAP_TAPCELL_ROW_9_88
*814 TopZeroToFive_10
*815 TopZeroToFive_11
*816 TopZeroToFive_12
*817 TopZeroToFive_13
*818 TopZeroToFive_14
*819 TopZeroToFive_15
*820 TopZeroToFive_16
*821 TopZeroToFive_9
*822 _063_
*823 _064_
*824 _065_
*825 _066_
*826 _067_
*827 _068_
*828 _069_
*829 _070_
*830 _071_
*831 _072_
*832 _073_
*833 _074_
*834 _075_
*835 _076_
*836 _077_
*837 _078_
*838 _079_
*839 _080_
*840 _081_
*841 _082_
*842 _083_
*843 _084_
*844 _085_
*845 _086_
*846 _087_
*847 _088_
*848 _089_
*849 _090_
*850 _091_
*851 _092_
*852 _093_
*853 _094_
*854 _095_
*855 _096_
*856 _097_
*857 _098_
*858 _099_
*859 _100_
*860 _101_
*861 _102_
*862 _103_
*863 _104_
*864 _105_
*865 _106_
*866 _107_
*867 _108_
*868 _109_
*869 _110_
*870 _111_
*871 _112_
*872 _113_
*873 _114_
*874 _115_
*875 _116_
*876 _117_
*877 _118_
*878 _119_
*879 _120_
*880 _121_
*881 _122_
*882 _123_
*883 _124_
*884 _125_
*885 _126_
*886 _127_
*887 _128_
*888 _129_
*889 _130_
*890 _131_
*891 _132_
*892 _133_
*893 _134_
*894 _135_
*895 _136_
*896 _137_
*897 _138_
*898 _139_
*899 _140_
*900 _141_
*901 _142_
*902 _143_
*903 _144_
*904 _145_
*905 _146_
*906 _147_
*907 _148_
*908 _149_
*909 _150_
*910 _151_
*911 _152_
*912 _153_
*913 _154_
*914 _155_
*915 _164_
*916 clkbuf_0_clk
*917 clkbuf_1_0__f_clk
*918 clkbuf_1_1__f_clk
*919 clkload0
*920 hold1
*921 input1
*922 output2
*923 output3
*924 output4
*925 output5
*926 output6
*927 output7
*928 output8

*PORTS
an[0] O
an[1] O
an[2] O
an[3] O
an[4] O
an[5] O
an[6] O
an[7] O
btnC I
clk I
seg[0] O
seg[1] O
seg[2] O
seg[3] O
seg[4] O
seg[5] O
seg[6] O

*D_NET *3 0.00118008
*CONN
*P an[0] O
*I *821:LO O *D sky130_fd_sc_hd__conb_1
*CAP
1 an[0] 0.000500941
2 *821:LO 8.90973e-05
3 *3:8 0.000590039
*RES
1 *821:LO *3:8 39.5743 
2 *3:8 an[0] 10.8129 
*END

*D_NET *4 0.00131808
*CONN
*P an[1] O
*I *814:HI O *D sky130_fd_sc_hd__conb_1
*CAP
1 an[1] 0.000370205
2 *814:HI 0.000288835
3 *4:12 0.000659041
4 *4:12 an[2] 0
*RES
1 *814:HI *4:12 42.4018 
2 *4:12 an[1] 8.52393 
*END

*D_NET *5 0.00103959
*CONN
*P an[2] O
*I *815:HI O *D sky130_fd_sc_hd__conb_1
*CAP
1 an[2] 0.000519793
2 *815:HI 0.000519793
3 *4:12 an[2] 0
*RES
1 *815:HI an[2] 48.73 
*END

*D_NET *6 0.00105253
*CONN
*P an[3] O
*I *816:HI O *D sky130_fd_sc_hd__conb_1
*CAP
1 an[3] 0.000510122
2 *816:HI 0.000510122
3 an[3] *116:77 3.22879e-05
*RES
1 *816:HI an[3] 48.73 
*END

*D_NET *7 0.00105253
*CONN
*P an[4] O
*I *817:HI O *D sky130_fd_sc_hd__conb_1
*CAP
1 an[4] 0.000510122
2 *817:HI 0.000510122
3 an[4] *116:53 3.22879e-05
*RES
1 *817:HI an[4] 48.73 
*END

*D_NET *8 0.00105253
*CONN
*P an[5] O
*I *818:HI O *D sky130_fd_sc_hd__conb_1
*CAP
1 an[5] 0.000510122
2 *818:HI 0.000510122
3 an[5] *116:53 3.22879e-05
*RES
1 *818:HI an[5] 48.73 
*END

*D_NET *9 0.00107919
*CONN
*P an[6] O
*I *819:HI O *D sky130_fd_sc_hd__conb_1
*CAP
1 an[6] 0.000510619
2 *819:HI 0.000510619
3 an[6] *116:64 5.79559e-05
*RES
1 *819:HI an[6] 48.73 
*END

*D_NET *10 0.00107368
*CONN
*P an[7] O
*I *820:HI O *D sky130_fd_sc_hd__conb_1
*CAP
1 an[7] 0.000508489
2 *820:HI 0.000508489
3 an[7] *116:64 5.67058e-05
*RES
1 *820:HI an[7] 48.73 
*END

*D_NET *11 0.00108883
*CONN
*P btnC I
*I *921:A I *D sky130_fd_sc_hd__buf_2
*CAP
1 btnC 0.000544417
2 *921:A 0.000544417
*RES
1 btnC *921:A 49.4343 
*END

*D_NET *12 0.0140679
*CONN
*P clk I
*I *916:A I *D sky130_fd_sc_hd__clkbuf_16
*CAP
1 clk 0.00421063
2 *916:A 0
3 *12:23 0.00280708
4 *12:13 0.00701771
5 *12:23 *67:21 2.26406e-05
6 *12:23 *117:16 9.85586e-06
*RES
1 clk *12:13 42.8043 
2 *12:13 *12:23 37.7741 
3 *12:23 *916:A 23 
*END

*D_NET *13 0.00107368
*CONN
*P seg[0] O
*I *922:X O *D sky130_fd_sc_hd__buf_1
*CAP
1 seg[0] 0.000508489
2 *922:X 0.000508489
3 seg[0] *116:64 5.67058e-05
*RES
1 *922:X seg[0] 48.73 
*END

*D_NET *14 0.00107461
*CONN
*P seg[1] O
*I *923:X O *D sky130_fd_sc_hd__buf_1
*CAP
1 seg[1] 0.00050895
2 *923:X 0.00050895
3 seg[1] *15:10 0
4 seg[1] *116:64 5.67058e-05
*RES
1 *923:X seg[1] 48.73 
*END

*D_NET *15 0.00134883
*CONN
*P seg[2] O
*I *924:X O *D sky130_fd_sc_hd__buf_1
*CAP
1 seg[2] 9.92331e-05
2 *924:X 0.000523986
3 *15:10 0.000623219
4 *15:10 *116:64 0.000102389
5 seg[1] *15:10 0
*RES
1 *924:X *15:10 49.2789 
2 *15:10 seg[2] 3.34536 
*END

*D_NET *16 0.00107368
*CONN
*P seg[3] O
*I *925:X O *D sky130_fd_sc_hd__buf_1
*CAP
1 seg[3] 0.000508489
2 *925:X 0.000508489
3 seg[3] *116:64 5.67058e-05
*RES
1 *925:X seg[3] 48.73 
*END

*D_NET *17 0.00174914
*CONN
*P seg[4] O
*I *926:X O *D sky130_fd_sc_hd__buf_1
*CAP
1 seg[4] 0.000470121
2 *926:X 0.000282502
3 *17:8 0.000752623
4 *17:8 *826:A 1.32939e-05
5 *17:8 *116:64 0.000230604
*RES
1 *926:X *17:8 42.4329 
2 *17:8 seg[4] 10.1086 
*END

*D_NET *18 0.00103959
*CONN
*P seg[5] O
*I *927:X O *D sky130_fd_sc_hd__buf_1
*CAP
1 seg[5] 0.000519793
2 *927:X 0.000519793
*RES
1 *927:X seg[5] 48.73 
*END

*D_NET *19 0.00103959
*CONN
*P seg[6] O
*I *928:X O *D sky130_fd_sc_hd__buf_1
*CAP
1 seg[6] 0.000519793
2 *928:X 0.000519793
*RES
1 *928:X seg[6] 48.73 
*END

*D_NET *20 0.00267489
*CONN
*I *911:D I *D sky130_fd_sc_hd__dfrtp_4
*I *825:X O *D sky130_fd_sc_hd__o21ba_1
*CAP
1 *911:D 0
2 *825:X 3.3042e-05
3 *20:12 0.000398078
4 *20:8 0.00043112
5 *20:8 *825:B1_N 5.5792e-05
6 *20:12 *23:18 0.000148973
7 *20:12 *55:16 0.000187198
8 *20:12 *91:29 0.000273074
9 *20:12 *91:46 0.000474291
10 *20:12 *104:8 0.000673327
*RES
1 *825:X *20:8 38.6214 
2 *20:8 *20:12 29.2307 
3 *20:12 *911:D 23 
*END

*D_NET *21 0.0194532
*CONN
*I *912:D I *D sky130_fd_sc_hd__dfrtp_4
*I *119:DIODE I *D sky130_fd_sc_hd__diode_2
*I *826:X O *D sky130_fd_sc_hd__xor2_1
*CAP
1 *912:D 0.000214644
2 *119:DIODE 0
3 *826:X 0.000175036
4 *21:26 0.000214644
5 *21:24 0.00755183
6 *21:12 0.00772687
7 *912:D *64:31 7.50734e-05
8 *912:D *66:6 0.000100477
9 *21:12 *111:18 0
10 *21:24 *26:16 0.000166874
11 *21:24 *37:16 0.000685379
12 *21:24 *42:14 0.000206645
13 *21:24 *52:8 0.000670734
14 *21:24 *54:8 0.000673115
15 *21:24 *57:27 2.33476e-05
16 *21:24 *66:12 8.22421e-06
17 *21:24 *72:12 0.000311137
18 *21:24 *102:31 0.000251556
19 *21:24 *111:12 0.000397632
*RES
1 *826:X *21:12 47.9144 
2 *21:12 *21:24 43.3219 
3 *21:24 *21:26 15 
4 *21:26 *119:DIODE 23 
5 *21:26 *912:D 27.1221 
*END

*D_NET *22 0.0144089
*CONN
*I *913:D I *D sky130_fd_sc_hd__dfrtp_4
*I *830:X O *D sky130_fd_sc_hd__buf_1
*CAP
1 *913:D 0
2 *830:X 0
3 *22:10 0.000882276
4 *22:6 0.00512575
5 *22:4 0.00424348
6 *22:6 *875:D 4.14223e-05
7 *22:6 *880:B 0.0002263
8 *22:6 *57:62 0.000686648
9 *22:6 *86:27 0.00020954
10 *22:6 *86:34 0.000133543
11 *22:6 *86:80 0.000237542
12 *22:6 *91:46 0.000481948
13 *22:6 *106:6 0.000241703
14 *22:10 *856:A 0.000156379
15 *22:10 *37:16 0
16 *22:10 *84:75 8.77898e-05
17 *22:10 *101:10 0.00165462
*RES
1 *830:X *22:4 23 
2 *22:4 *22:6 57.7929 
3 *22:6 *22:10 39.0907 
4 *22:10 *913:D 38 
*END

*D_NET *23 0.00598671
*CONN
*I *914:D I *D sky130_fd_sc_hd__dfrtp_4
*I *831:Y O *D sky130_fd_sc_hd__xnor2_1
*CAP
1 *914:D 0
2 *831:Y 0.000130084
3 *23:18 0.00113512
4 *23:8 0.00126521
5 *23:8 *831:B 0.000493692
6 *23:8 *116:29 0.000401833
7 *23:18 *825:B1_N 5.5792e-05
8 *23:18 *831:B 0.000113832
9 *23:18 *861:A1 8.8786e-05
10 *23:18 *914:CLK 0.000187363
11 *23:18 *64:8 4.334e-05
12 *23:18 *91:14 0.000110267
13 *23:18 *91:29 0.000907735
14 *23:18 *91:46 0.00046501
15 *23:18 *114:20 0.000301481
16 *23:18 *114:22 0.000138198
17 *20:12 *23:18 0.000148973
*RES
1 *831:Y *23:8 43.3857 
2 *23:8 *23:18 44.9943 
3 *23:18 *914:D 23 
*END

*D_NET *24 0.00271095
*CONN
*I *891:D I *D sky130_fd_sc_hd__dfxtp_2
*I *840:Y O *D sky130_fd_sc_hd__inv_2
*CAP
1 *891:D 0
2 *840:Y 0.000824686
3 *24:14 0.000122449
4 *24:6 0.000947134
5 *24:6 *86:27 0.000173452
6 *24:6 *86:34 0.000415917
7 *24:14 *891:CLK 1.64354e-05
8 *24:14 *88:10 0.000193388
9 *24:14 *89:8 1.74843e-05
10 *24:14 *108:12 0
*RES
1 *840:Y *24:6 35.0557 
2 *24:6 *24:14 32.8016 
3 *24:14 *891:D 23 
*END

*D_NET *25 0.00588638
*CONN
*I *901:D I *D sky130_fd_sc_hd__dfxtp_1
*I *864:X O *D sky130_fd_sc_hd__xor2_1
*CAP
1 *901:D 0.000246586
2 *864:X 3.89973e-05
3 *25:10 0.00178882
4 *25:8 0.00158123
5 *901:D *84:106 0.000118209
6 *901:D *84:114 0.000447864
7 *25:8 *48:37 5.82853e-05
8 *25:10 *41:10 0
9 *25:10 *74:26 0.000722332
10 *25:10 *84:114 0.000199701
11 *25:10 *102:16 0.000684358
12 *25:10 *112:10 0
*RES
1 *864:X *25:8 38.6214 
2 *25:8 *25:10 35.7114 
3 *25:10 *901:D 44.8771 
*END

*D_NET *26 0.00918916
*CONN
*I *902:D I *D sky130_fd_sc_hd__dfxtp_1
*I *868:X O *D sky130_fd_sc_hd__o21ba_1
*CAP
1 *902:D 0
2 *868:X 0
3 *26:16 0.000736247
4 *26:10 0.00200424
5 *26:6 0.001268
6 *26:10 *852:B 0.000379138
7 *26:10 *51:60 0.00037402
8 *26:10 *100:41 0.000221513
9 *26:10 *111:12 0.000248583
10 *26:10 *111:18 7.80621e-05
11 *26:16 *902:CLK 5.56356e-05
12 *26:16 *40:10 0
13 *26:16 *80:39 0.000244517
14 *26:16 *84:10 5.15096e-05
15 *26:16 *84:12 0.000181654
16 *26:16 *84:16 0.0011208
17 *26:16 *84:18 8.11447e-05
18 *26:16 *101:6 0.000141535
19 *26:16 *111:12 0.00183568
20 *21:24 *26:16 0.000166874
*RES
1 *868:X *26:6 38 
2 *26:6 *26:10 26.7732 
3 *26:10 *26:16 42.5189 
4 *26:16 *902:D 23 
*END

*D_NET *27 0.00300239
*CONN
*I *903:D I *D sky130_fd_sc_hd__dfxtp_1
*I *871:Y O *D sky130_fd_sc_hd__nor2_1
*CAP
1 *903:D 0
2 *871:Y 9.3799e-05
3 *27:12 0.000984805
4 *27:8 0.0010786
5 *27:8 *55:16 6.23346e-05
6 *27:8 *116:38 3.98813e-05
7 *27:12 *903:CLK 0.000140927
8 *27:12 *89:72 0.000602043
*RES
1 *871:Y *27:8 39.9057 
2 *27:8 *27:12 31.6595 
3 *27:12 *903:D 23 
*END

*D_NET *28 0.00981269
*CONN
*I *904:D I *D sky130_fd_sc_hd__dfxtp_1
*I *873:X O *D sky130_fd_sc_hd__o21ba_1
*CAP
1 *904:D 0
2 *873:X 0.000679457
3 *28:14 0.000867001
4 *28:10 0.002071
5 *28:6 0.00188346
6 *28:6 *839:A2 0.00078627
7 *28:6 *873:A2 0.000186059
8 *28:6 *873:B1_N 0.000228164
9 *28:6 *90:24 0.000172534
10 *28:6 *111:8 0.000794937
11 *28:6 *115:35 1.46205e-05
12 *28:10 *33:8 0
13 *28:10 *58:20 0.000324484
14 *28:10 *58:29 0.000148603
15 *28:10 *70:22 0.000567678
16 *28:10 *98:14 0.000162254
17 *28:10 *117:16 0.000796637
18 *28:14 *904:CLK 0.000129529
*RES
1 *873:X *28:6 42.6786 
2 *28:6 *28:10 45.0771 
3 *28:10 *28:14 27.3716 
4 *28:14 *904:D 23 
*END

*D_NET *29 0.00312504
*CONN
*I *905:D I *D sky130_fd_sc_hd__dfxtp_1
*I *874:X O *D sky130_fd_sc_hd__xor2_1
*CAP
1 *905:D 0.000562418
2 *874:X 0.000754835
3 *29:8 0.00131725
4 *905:D *34:10 0
5 *905:D *37:10 0
6 *905:D *43:10 0
7 *905:D *91:6 3.29537e-05
8 *905:D *115:14 0.000128979
9 *905:D *115:51 6.63594e-05
10 *29:8 *846:A 6.52787e-05
11 *29:8 *52:37 0.00014196
12 *29:8 *73:10 5.50049e-05
*RES
1 *874:X *29:8 47.6736 
2 *29:8 *905:D 49.3514 
*END

*D_NET *30 0.00390093
*CONN
*I *906:D I *D sky130_fd_sc_hd__dfxtp_1
*I *878:X O *D sky130_fd_sc_hd__o21ba_1
*CAP
1 *906:D 0
2 *878:X 0.000446045
3 *30:6 0.000446045
4 *30:6 *878:B1_N 0.000502654
5 *30:6 *61:6 0.000415769
6 *30:6 *85:59 0.000538435
7 *30:6 *92:23 0.000452732
8 *30:6 *95:16 0.00109925
*RES
1 *878:X *30:6 42.518 
2 *30:6 *906:D 23 
*END

*D_NET *31 0.00472246
*CONN
*I *907:D I *D sky130_fd_sc_hd__dfxtp_1
*I *879:X O *D sky130_fd_sc_hd__xor2_1
*CAP
1 *907:D 0.000370509
2 *879:X 0
3 *31:10 0.00161803
4 *31:6 0.00124752
5 *907:D *84:65 0.000260621
6 *31:10 *56:12 0
7 *31:10 *79:14 0.000165973
8 *31:10 *81:10 0.000509237
9 *31:10 *81:23 4.91458e-05
10 *31:10 *86:12 0.000501418
11 *31:10 *94:10 0
12 *31:10 *101:10 0
*RES
1 *879:X *31:6 38 
2 *31:6 *31:10 45.7814 
3 *31:10 *907:D 29.6545 
*END

*D_NET *32 0.0182226
*CONN
*I *908:D I *D sky130_fd_sc_hd__dfxtp_1
*I *883:X O *D sky130_fd_sc_hd__buf_1
*CAP
1 *908:D 0
2 *883:X 8.1304e-05
3 *32:22 0.0031968
4 *32:10 0.00473105
5 *32:8 0.00161555
6 *32:8 *36:14 9.66668e-05
7 *32:10 *881:A2 0.000190614
8 *32:10 *57:27 2.05503e-05
9 *32:10 *62:10 0.00180489
10 *32:10 *66:12 0.000504745
11 *32:10 *69:10 0.000266642
12 *32:10 *69:18 8.26569e-05
13 *32:10 *85:12 0.000102135
14 *32:10 *85:88 0.000316046
15 *32:10 *100:10 9.78317e-06
16 *32:10 *100:20 3.51198e-05
17 *32:10 *100:50 0.000653946
18 *32:10 *114:20 0
19 *32:22 *37:16 0.00418675
20 *32:22 *84:24 0.000139346
21 *32:22 *90:41 4.62917e-05
22 *32:22 *94:21 0.000141763
*RES
1 *883:X *32:8 39.0979 
2 *32:8 *32:10 43.9868 
3 *32:10 *32:22 42.5289 
4 *32:22 *908:D 23 
*END

*D_NET *33 0.00750951
*CONN
*I *909:D I *D sky130_fd_sc_hd__dfxtp_1
*I *884:Y O *D sky130_fd_sc_hd__xnor2_1
*CAP
1 *909:D 2.54798e-05
2 *884:Y 0
3 *33:8 0.00326647
4 *33:6 0.00324099
5 *909:D *909:CLK 8.90341e-05
6 *909:D *105:23 3.32987e-05
7 *33:8 *49:10 0
8 *33:8 *58:20 0.000600709
9 *33:8 *58:29 0.00014739
10 *33:8 *68:8 6.67555e-05
11 *33:8 *70:22 0
12 *33:8 *81:34 0
13 *33:8 *96:32 0
14 *33:8 *96:36 0
15 *33:8 *98:14 3.93804e-05
16 *33:8 *98:18 0
17 *33:8 *115:100 0
18 *28:10 *33:8 0
*RES
1 *884:Y *33:6 38 
2 *33:6 *33:8 58.9529 
3 *33:8 *909:D 38.9943 
*END

*D_NET *34 0.0084958
*CONN
*I *910:D I *D sky130_fd_sc_hd__dfxtp_2
*I *886:X O *D sky130_fd_sc_hd__xor2_1
*CAP
1 *910:D 3.94204e-05
2 *886:X 0.000216361
3 *34:10 0.00252416
4 *34:8 0.0027011
5 *910:D *910:CLK 8.90284e-05
6 *34:8 *114:34 2.49231e-05
7 *34:10 *838:B1 0
8 *34:10 *905:CLK 0.000294746
9 *34:10 *36:14 0
10 *34:10 *45:8 0.000186986
11 *34:10 *60:10 0
12 *34:10 *63:10 0
13 *34:10 *73:14 0.000122984
14 *34:10 *81:68 0
15 *34:10 *85:23 0.000422505
16 *34:10 *85:25 0.000194105
17 *34:10 *105:70 0
18 *34:10 *115:14 0.000402593
19 *34:10 *115:51 0.00108317
20 *34:10 *117:79 0.000193712
21 *34:10 *118:89 0
22 *905:D *34:10 0
*RES
1 *886:X *34:8 41.0036 
2 *34:8 *34:10 58.6007 
3 *34:10 *910:D 38.9943 
*END

*D_NET *35 0.00436996
*CONN
*I *892:D I *D sky130_fd_sc_hd__dfxtp_1
*I *844:X O *D sky130_fd_sc_hd__clkbuf_1
*CAP
1 *892:D 0
2 *844:X 0.000410027
3 *35:14 0.000315638
4 *35:8 0.000725665
5 *35:8 *84:10 0.000233367
6 *35:8 *84:65 5.3304e-05
7 *35:8 *84:91 0.0003892
8 *35:8 *89:40 0.000136743
9 *35:14 *51:47 0.00104591
10 *35:14 *88:21 0.00104368
11 *35:14 *112:6 1.64354e-05
*RES
1 *844:X *35:8 46.7207 
2 *35:8 *35:14 29.0702 
3 *35:14 *892:D 23 
*END

*D_NET *36 0.00788214
*CONN
*I *893:D I *D sky130_fd_sc_hd__dfxtp_1
*I *845:Y O *D sky130_fd_sc_hd__xnor2_1
*CAP
1 *893:D 0
2 *845:Y 0.000647804
3 *36:14 0.00126903
4 *36:8 0.00191684
5 *36:8 *70:33 0.000880237
6 *36:14 *838:B1 0.000218925
7 *36:14 *883:A 0.000621429
8 *36:14 *81:53 0.00021176
9 *36:14 *81:68 5.7607e-05
10 *36:14 *97:25 6.67238e-05
11 *36:14 *100:20 0.000301131
12 *36:14 *115:64 0.000941506
13 *36:14 *115:75 0.000583895
14 *36:14 *118:89 6.85843e-05
15 *32:8 *36:14 9.66668e-05
16 *34:10 *36:14 0
*RES
1 *845:Y *36:8 47.6736 
2 *36:8 *36:14 48.5416 
3 *36:14 *893:D 23 
*END

*D_NET *37 0.0195353
*CONN
*I *894:D I *D sky130_fd_sc_hd__dfxtp_1
*I *850:X O *D sky130_fd_sc_hd__buf_1
*CAP
1 *894:D 8.63068e-05
2 *850:X 3.83434e-05
3 *37:16 0.00716469
4 *37:10 0.00711673
5 *894:D *84:75 0.000192315
6 *37:16 *58:8 6.48356e-05
7 *37:16 *93:8 0
8 *37:16 *93:18 0
9 *37:16 *101:10 0
10 *905:D *37:10 0
11 *21:24 *37:16 0.000685379
12 *22:10 *37:16 0
13 *32:22 *37:16 0.00418675
*RES
1 *850:X *37:10 46.6732 
2 *37:10 *37:16 48.2515 
3 *37:16 *894:D 40.0973 
*END

*D_NET *38 0.00155784
*CONN
*I *895:D I *D sky130_fd_sc_hd__dfxtp_1
*I *851:X O *D sky130_fd_sc_hd__xor2_1
*CAP
1 *895:D 1.13183e-05
2 *851:X 0.000445237
3 *38:8 0.000456556
4 *895:D *895:CLK 1.64354e-05
5 *38:8 *90:65 0.000628293
6 *38:8 *103:52 0
*RES
1 *851:X *38:8 46.5964 
2 *38:8 *895:D 38.1916 
*END

*D_NET *39 0.0102524
*CONN
*I *896:D I *D sky130_fd_sc_hd__dfxtp_1
*I *854:Y O *D sky130_fd_sc_hd__nor2_1
*CAP
1 *896:D 0
2 *854:Y 0.000119654
3 *39:12 0.00259287
4 *39:10 0.00259287
5 *39:8 0.000119654
6 *39:8 *102:31 0.000189749
7 *39:12 *85:12 0.000978145
8 *39:12 *87:20 0.000125096
9 *39:12 *87:22 0.00255856
10 *39:12 *98:35 0.000533133
11 *39:12 *100:10 0.000442699
*RES
1 *854:Y *39:8 40.61 
2 *39:8 *39:10 15 
3 *39:10 *39:12 51.6459 
4 *39:12 *896:D 23 
*END

*D_NET *40 0.012571
*CONN
*I *897:D I *D sky130_fd_sc_hd__dfxtp_1
*I *855:X O *D sky130_fd_sc_hd__xor2_1
*CAP
1 *897:D 0
2 *855:X 0.00100495
3 *40:14 0.000616583
4 *40:10 0.00196434
5 *40:6 0.00235271
6 *40:6 *855:B 0.000533213
7 *40:6 *42:8 0.000563788
8 *40:6 *81:23 0.00133533
9 *40:6 *113:8 0.000128527
10 *40:10 *71:10 0.00225287
11 *40:10 *84:12 0
12 *40:10 *84:16 0
13 *40:10 *103:8 8.81493e-05
14 *40:14 *897:CLK 0.000126403
15 *40:14 *88:8 1.73399e-05
16 *40:14 *101:6 0.00158682
17 *26:16 *40:10 0
*RES
1 *855:X *40:6 47.4429 
2 *40:6 *40:10 46.1336 
3 *40:10 *40:14 32.6123 
4 *40:14 *897:D 23 
*END

*D_NET *41 0.0047137
*CONN
*I *898:D I *D sky130_fd_sc_hd__dfxtp_1
*I *859:X O *D sky130_fd_sc_hd__o21ba_1
*CAP
1 *898:D 0.000339796
2 *859:X 0
3 *41:10 0.00166088
4 *41:6 0.00132109
5 *41:10 *79:14 0
6 *41:10 *81:23 0.000404937
7 *41:10 *112:10 0.000986994
8 *25:10 *41:10 0
*RES
1 *859:X *41:6 38 
2 *41:6 *41:10 45.0771 
3 *41:10 *898:D 28.2252 
*END

*D_NET *42 0.00570555
*CONN
*I *899:D I *D sky130_fd_sc_hd__dfxtp_1
*I *860:X O *D sky130_fd_sc_hd__xor2_1
*CAP
1 *899:D 0
2 *860:X 0.000571203
3 *42:14 0.000728614
4 *42:8 0.00129982
5 *42:8 *81:23 6.37432e-05
6 *42:14 *899:CLK 1.64354e-05
7 *42:14 *52:8 0.000927499
8 *42:14 *77:38 0.000784742
9 *42:14 *86:8 1.74843e-05
10 *42:14 *102:16 0
11 *42:14 *102:31 0.000525577
12 *21:24 *42:14 0.000206645
13 *40:6 *42:8 0.000563788
*RES
1 *860:X *42:8 45.7679 
2 *42:8 *42:14 40.3387 
3 *42:14 *899:D 23 
*END

*D_NET *43 0.00241229
*CONN
*I *900:D I *D sky130_fd_sc_hd__dfxtp_1
*I *863:Y O *D sky130_fd_sc_hd__nor2_1
*CAP
1 *900:D 0.000589368
2 *863:Y 0.000510262
3 *43:10 0.00109963
4 *43:10 *73:14 0
5 *43:10 *82:14 0.000146822
6 *43:10 *96:59 3.87221e-06
7 *43:10 *97:37 6.23346e-05
8 *905:D *43:10 0
*RES
1 *863:Y *43:10 46.7621 
2 *43:10 *900:D 46.0838 
*END

*D_NET *44 0.00710327
*CONN
*I *911:RESET_B I *D sky130_fd_sc_hd__dfrtp_4
*I *887:Y O *D sky130_fd_sc_hd__inv_2
*CAP
1 *911:RESET_B 0.000512981
2 *887:Y 7.07973e-05
3 *44:16 0.00191975
4 *44:8 0.00147757
5 *911:RESET_B *911:CLK 5.41385e-05
6 *911:RESET_B *85:40 0.000222784
7 *44:8 *70:18 0.000100477
8 *44:16 *867:C 0
9 *44:16 *897:CLK 0.000391707
10 *44:16 *50:8 0
11 *44:16 *51:18 0.000479674
12 *44:16 *74:12 1.0092e-05
13 *44:16 *76:18 0.000601313
14 *44:16 *85:40 0.000347145
15 *44:16 *86:38 8.74458e-05
16 *44:16 *87:35 0.000160125
17 *44:16 *101:6 0.000305143
18 *44:16 *101:38 0.000362133
*RES
1 *887:Y *44:8 39.0979 
2 *44:8 *44:16 48.9714 
3 *44:16 *911:RESET_B 7.86107 
*END

*D_NET *45 0.000926855
*CONN
*I *912:RESET_B I *D sky130_fd_sc_hd__dfrtp_4
*I *888:Y O *D sky130_fd_sc_hd__inv_2
*CAP
1 *912:RESET_B 0.000175809
2 *888:Y 9.64051e-05
3 *45:8 0.000272214
4 *912:RESET_B *905:CLK 5.3304e-05
5 *912:RESET_B *91:6 3.93631e-05
6 *912:RESET_B *116:10 2.19403e-05
7 *45:8 *905:CLK 3.47781e-05
8 *45:8 *105:70 3.41301e-05
9 *45:8 *116:10 1.1926e-05
10 *34:10 *45:8 0.000186986
*RES
1 *888:Y *45:8 40.61 
2 *45:8 *912:RESET_B 17.9311 
*END

*D_NET *46 0.00201988
*CONN
*I *913:RESET_B I *D sky130_fd_sc_hd__dfrtp_4
*I *889:Y O *D sky130_fd_sc_hd__inv_2
*CAP
1 *913:RESET_B 0.000724284
2 *889:Y 0.000242895
3 *46:8 0.00096718
4 *46:8 *105:12 8.5521e-05
*RES
1 *889:Y *46:8 41.48 
2 *46:8 *913:RESET_B 28.8786 
*END

*D_NET *47 0.0055481
*CONN
*I *914:RESET_B I *D sky130_fd_sc_hd__dfrtp_4
*I *890:Y O *D sky130_fd_sc_hd__inv_2
*CAP
1 *914:RESET_B 0.00126072
2 *890:Y 0.00033307
3 *47:8 0.00159379
4 *914:RESET_B *48:8 7.34394e-06
5 *914:RESET_B *63:16 8.23816e-05
6 *914:RESET_B *90:65 0.000752292
7 *914:RESET_B *99:14 0
8 *914:RESET_B *99:16 0
9 *914:RESET_B *113:23 0.00128601
10 *47:8 *895:CLK 0.000230043
11 *47:8 *76:16 2.45549e-06
*RES
1 *890:Y *47:8 42.4329 
2 *47:8 *914:RESET_B 44.0207 
*END

*D_NET *48 0.0174895
*CONN
*I *864:B I *D sky130_fd_sc_hd__xor2_1
*I *863:B I *D sky130_fd_sc_hd__nor2_1
*I *862:X O *D sky130_fd_sc_hd__and3_1
*CAP
1 *864:B 0
2 *863:B 0.000562094
3 *862:X 4.43572e-05
4 *48:37 0.00144926
5 *48:33 0.00144926
6 *48:24 0.00177627
7 *48:16 0.00149661
8 *48:8 0.00032679
9 *863:B *82:14 0.000748256
10 *48:8 *63:16 6.07397e-05
11 *48:8 *99:16 3.94608e-05
12 *48:16 *862:A 0.00018118
13 *48:16 *862:C 1.40958e-05
14 *48:16 *69:22 0.000176275
15 *48:16 *90:10 0.000393167
16 *48:16 *108:49 0.000222953
17 *48:24 *881:A2 0.000561079
18 *48:24 *69:22 0.00058755
19 *48:24 *89:72 0.000246748
20 *48:24 *90:10 0.000650503
21 *48:24 *90:18 0.000838642
22 *48:24 *94:40 0.000121795
23 *48:37 *53:12 0.00263829
24 *48:37 *87:22 0.00118273
25 *48:37 *98:14 0.000447841
26 *48:37 *98:35 0.00120791
27 *914:RESET_B *48:8 7.34394e-06
28 *25:8 *48:37 5.82853e-05
*RES
1 *862:X *48:8 39.2014 
2 *48:8 *48:16 37.9543 
3 *48:16 *48:24 46.465 
4 *48:24 *863:B 35.0557 
5 *48:16 *48:33 15 
6 *48:33 *48:37 43.0443 
7 *48:37 *864:B 23 
*END

*D_NET *49 0.0046361
*CONN
*I *868:A2 I *D sky130_fd_sc_hd__o21ba_1
*I *865:X O *D sky130_fd_sc_hd__and4_1
*CAP
1 *868:A2 0
2 *865:X 0.000496064
3 *49:16 0.00116517
4 *49:10 0.00166123
5 *49:10 *848:A2 0.000168524
6 *49:10 *74:61 8.87758e-05
7 *49:10 *86:67 9.14681e-05
8 *49:10 *97:12 5.5792e-05
9 *49:10 *100:24 0.000137525
10 *49:10 *105:33 0.000323081
11 *49:16 *868:A1 0.000448463
12 *33:8 *49:10 0
*RES
1 *865:X *49:10 49.9314 
2 *49:10 *49:16 34.6993 
3 *49:16 *868:A2 23 
*END

*D_NET *50 0.00807295
*CONN
*I *877:C I *D sky130_fd_sc_hd__and4_2
*I *867:C I *D sky130_fd_sc_hd__and3_1
*I *866:X O *D sky130_fd_sc_hd__and4_1
*CAP
1 *877:C 0
2 *867:C 0.000705489
3 *866:X 0.000367296
4 *50:23 0.00135075
5 *50:8 0.00242354
6 *867:C *839:A2 0.000209396
7 *867:C *867:A 0.000128378
8 *867:C *76:18 0
9 *867:C *96:32 1.86166e-05
10 *867:C *96:36 0.000183974
11 *50:8 *51:18 1.69668e-05
12 *50:8 *86:38 0.000401886
13 *50:8 *96:32 0.000351338
14 *50:23 *74:85 0.00177268
15 *50:23 *74:93 0.000142636
16 *44:16 *867:C 0
17 *44:16 *50:8 0
*RES
1 *866:X *50:8 48.005 
2 *50:8 *867:C 49.5068 
3 *50:8 *50:23 36.1079 
4 *50:23 *877:C 23 
*END

*D_NET *51 0.0182018
*CONN
*I *875:D I *D sky130_fd_sc_hd__and4_1
*I *868:B1_N I *D sky130_fd_sc_hd__o21ba_1
*I *872:C I *D sky130_fd_sc_hd__and3_1
*I *869:B I *D sky130_fd_sc_hd__and2_1
*I *870:B I *D sky130_fd_sc_hd__nor2_1
*I *867:X O *D sky130_fd_sc_hd__and3_1
*CAP
1 *875:D 0.000806784
2 *868:B1_N 9.38388e-05
3 *872:C 0
4 *869:B 0.000190127
5 *870:B 0.000144821
6 *867:X 0.000517479
7 *51:70 0.00017994
8 *51:60 0.000438525
9 *51:47 0.00147361
10 *51:24 0.00209527
11 *51:18 0.00131293
12 *51:10 0.00128801
13 *51:8 0.000517479
14 *869:B *72:8 7.48608e-05
15 *869:B *90:71 3.16665e-05
16 *870:B *870:A 0.000188927
17 *870:B *98:8 4.05745e-05
18 *875:D *86:80 0.000170398
19 *875:D *91:46 1.39431e-05
20 *51:8 *867:A 0.000416395
21 *51:8 *867:B 1.14452e-05
22 *51:8 *903:CLK 0
23 *51:8 *74:70 0.000323269
24 *51:8 *85:59 0
25 *51:8 *86:80 0
26 *51:8 *118:12 5.20305e-05
27 *51:18 *86:38 0.000203824
28 *51:18 *86:80 0.000152662
29 *51:24 *88:10 4.21252e-05
30 *51:24 *88:21 0.000164264
31 *51:24 *103:16 3.673e-05
32 *51:24 *103:20 0.00136334
33 *51:24 *103:82 0.000420428
34 *51:47 *843:A 0.00037728
35 *51:47 *843:B 0.000179447
36 *51:47 *852:A 0.000723068
37 *51:47 *72:8 4.50987e-05
38 *51:47 *84:91 6.12094e-05
39 *51:47 *84:106 1.12919e-05
40 *51:47 *88:21 0.000389393
41 *51:47 *90:71 4.91699e-05
42 *51:47 *99:40 5.3304e-05
43 *51:47 *99:44 0.000111106
44 *51:47 *103:82 0.000847209
45 *51:60 *110:18 0
46 *51:60 *111:18 0.00042646
47 *51:70 *89:54 2.07921e-05
48 *51:70 *102:8 4.67488e-05
49 *51:70 *102:16 0
50 *51:70 *111:18 0.000136486
51 *22:6 *875:D 4.14223e-05
52 *26:10 *51:60 0.00037402
53 *35:14 *51:47 0.00104591
54 *44:16 *51:18 0.000479674
55 *50:8 *51:18 1.69668e-05
*RES
1 *867:X *51:8 49.4136 
2 *51:8 *51:10 15 
3 *51:10 *51:18 39.9636 
4 *51:18 *51:24 36.0457 
5 *51:24 *870:B 41.0036 
6 *51:24 *51:47 49.1993 
7 *51:47 *869:B 26.48 
8 *51:47 *51:60 35.7793 
9 *51:60 *51:70 33.2314 
10 *51:70 *872:C 23 
11 *51:60 *868:B1_N 24.5743 
12 *51:10 *875:D 33.875 
*END

*D_NET *52 0.0180444
*CONN
*I *871:A I *D sky130_fd_sc_hd__nor2_1
*I *873:A2 I *D sky130_fd_sc_hd__o21ba_1
*I *869:X O *D sky130_fd_sc_hd__and2_1
*CAP
1 *871:A 0
2 *873:A2 0.000468743
3 *869:X 0
4 *52:37 0.00293541
5 *52:29 0.00318219
6 *52:8 0.00205732
7 *52:6 0.00134179
8 *873:A2 *873:A1 0
9 *873:A2 *873:B1_N 0.000372697
10 *873:A2 *90:24 0.000112463
11 *873:A2 *102:31 0
12 *52:8 *873:B1_N 3.70187e-05
13 *52:8 *54:8 0.00309941
14 *52:8 *77:38 6.18399e-05
15 *52:8 *78:16 0
16 *52:8 *102:31 0
17 *52:29 *54:23 0.000259968
18 *52:29 *56:12 2.02872e-05
19 *52:37 *846:A 2.65879e-05
20 *52:37 *871:B 7.33352e-05
21 *52:37 *874:A 2.64616e-05
22 *52:37 *54:23 0.00204268
23 *21:24 *52:8 0.000670734
24 *28:6 *873:A2 0.000186059
25 *29:8 *52:37 0.00014196
26 *42:14 *52:8 0.000927499
*RES
1 *869:X *52:6 38 
2 *52:6 *52:8 42.05 
3 *52:8 *873:A2 47.7979 
4 *52:8 *52:29 18.9771 
5 *52:29 *52:37 44.515 
6 *52:37 *871:A 23 
*END

*D_NET *53 0.0110951
*CONN
*I *871:B I *D sky130_fd_sc_hd__nor2_1
*I *870:Y O *D sky130_fd_sc_hd__nor2_1
*CAP
1 *871:B 0.000259454
2 *870:Y 6.27e-05
3 *53:18 0.000758522
4 *53:12 0.00256412
5 *53:8 0.00212775
6 *871:B *846:A 0.000729772
7 *871:B *874:A 5.3304e-05
8 *871:B *54:23 0.000262
9 *53:8 *110:12 4.11274e-05
10 *53:12 *98:35 4.05745e-05
11 *53:18 *90:10 0.000689434
12 *53:18 *90:18 0.00040474
13 *53:18 *100:20 7.29729e-05
14 *53:18 *100:50 0.000252604
15 *53:18 *103:69 6.43792e-05
16 *48:37 *53:12 0.00263829
17 *52:37 *871:B 7.33352e-05
*RES
1 *870:Y *53:8 39.2014 
2 *53:8 *53:12 45.16 
3 *53:12 *53:18 44.5829 
4 *53:18 *871:B 31.7414 
*END

*D_NET *54 0.0171826
*CONN
*I *874:B I *D sky130_fd_sc_hd__xor2_1
*I *873:B1_N I *D sky130_fd_sc_hd__o21ba_1
*I *872:X O *D sky130_fd_sc_hd__and3_1
*CAP
1 *874:B 0
2 *873:B1_N 0.00022408
3 *872:X 0
4 *54:23 0.0012879
5 *54:21 0.0012879
6 *54:8 0.00138093
7 *54:6 0.00115685
8 *873:B1_N *57:8 0.000351617
9 *873:B1_N *57:62 5.01986e-05
10 *873:B1_N *90:24 0.000208786
11 *54:8 *57:62 0.000451094
12 *54:8 *72:12 0.00164137
13 *54:8 *89:54 0
14 *54:8 *90:71 4.334e-05
15 *54:8 *102:16 0
16 *54:8 *111:12 0.000491333
17 *54:8 *111:18 4.29668e-05
18 *54:23 *846:A 0.000175873
19 *54:23 *56:12 0.000135037
20 *54:23 *74:85 0.00116297
21 *54:23 *74:93 6.19722e-05
22 *54:23 *80:39 5.3304e-05
23 *871:B *54:23 0.000262
24 *873:A2 *873:B1_N 0.000372697
25 *21:24 *54:8 0.000673115
26 *28:6 *873:B1_N 0.000228164
27 *52:8 *873:B1_N 3.70187e-05
28 *52:8 *54:8 0.00309941
29 *52:29 *54:23 0.000259968
30 *52:37 *54:23 0.00204268
*RES
1 *872:X *54:6 38 
2 *54:6 *54:8 44.515 
3 *54:8 *873:B1_N 46.9071 
4 *54:8 *54:21 15 
5 *54:21 *54:23 42.0707 
6 *54:23 *874:B 23 
*END

*D_NET *55 0.00470319
*CONN
*I *878:A2 I *D sky130_fd_sc_hd__o21ba_1
*I *875:X O *D sky130_fd_sc_hd__and4_1
*CAP
1 *878:A2 0
2 *875:X 0.000523598
3 *55:16 0.00105191
4 *55:8 0.0015755
5 *55:8 *830:A 9.32948e-05
6 *55:8 *91:46 4.27467e-05
7 *55:16 *878:B1_N 5.82853e-05
8 *55:16 *61:6 0.000186041
9 *55:16 *91:14 4.80313e-05
10 *55:16 *91:29 0.000198678
11 *55:16 *92:23 7.58775e-05
12 *55:16 *93:44 0.000377593
13 *55:16 *104:8 0.000222104
14 *55:16 *116:38 0
15 *20:12 *55:16 0.000187198
16 *27:8 *55:16 6.23346e-05
*RES
1 *875:X *55:8 44.3386 
2 *55:8 *55:16 38.8214 
3 *55:16 *878:A2 23 
*END

*D_NET *56 0.00361545
*CONN
*I *877:D I *D sky130_fd_sc_hd__and4_2
*I *876:X O *D sky130_fd_sc_hd__and4_1
*CAP
1 *877:D 0
2 *876:X 0
3 *56:12 0.00105268
4 *56:6 0.00105268
5 *56:12 *74:93 0.00112833
6 *56:12 *81:10 0
7 *56:12 *90:41 0.00022645
8 *56:12 *102:31 0
9 *31:10 *56:12 0
10 *52:29 *56:12 2.02872e-05
11 *54:23 *56:12 0.000135037
*RES
1 *876:X *56:6 38 
2 *56:6 *56:12 39.5879 
3 *56:12 *877:D 23 
*END

*D_NET *57 0.0192893
*CONN
*I *880:C I *D sky130_fd_sc_hd__nand3_2
*I *881:A2 I *D sky130_fd_sc_hd__a21o_1
*I *885:D I *D sky130_fd_sc_hd__and4_1
*I *878:B1_N I *D sky130_fd_sc_hd__o21ba_1
*I *879:B I *D sky130_fd_sc_hd__xor2_1
*I *877:X O *D sky130_fd_sc_hd__and4_2
*CAP
1 *880:C 0
2 *881:A2 0.000219975
3 *885:D 0
4 *878:B1_N 0.000116338
5 *879:B 0
6 *877:X 0
7 *57:62 0.000978243
8 *57:27 0.000471301
9 *57:25 0.000574938
10 *57:23 0.00113116
11 *57:21 0.00113116
12 *57:14 0.00061026
13 *57:8 0.000858494
14 *57:6 0.00122648
15 *878:B1_N *61:6 1.73995e-05
16 *878:B1_N *92:23 0.00059451
17 *878:B1_N *100:50 6.12392e-05
18 *881:A2 *94:40 0.000561079
19 *881:A2 *100:50 0.000183574
20 *57:8 *80:39 6.53609e-05
21 *57:8 *84:24 0
22 *57:8 *102:31 0
23 *57:8 *111:12 0.000301409
24 *57:14 *71:10 0
25 *57:14 *93:25 0.00089286
26 *57:14 *102:31 0
27 *57:23 *76:24 0.00117142
28 *57:23 *80:14 0.00236513
29 *57:23 *80:22 0.00014196
30 *57:23 *84:24 0.000183733
31 *57:23 *94:21 0.000328652
32 *57:23 *117:42 0.000474339
33 *57:27 *66:12 7.40979e-05
34 *57:27 *100:50 0.000577962
35 *57:62 *880:B 0.000577594
36 *57:62 *111:12 0.000502594
37 *873:B1_N *57:8 0.000351617
38 *873:B1_N *57:62 5.01986e-05
39 *21:24 *57:27 2.33476e-05
40 *22:6 *57:62 0.000686648
41 *30:6 *878:B1_N 0.000502654
42 *32:10 *881:A2 0.000190614
43 *32:10 *57:27 2.05503e-05
44 *48:24 *881:A2 0.000561079
45 *54:8 *57:62 0.000451094
46 *55:16 *878:B1_N 5.82853e-05
*RES
1 *877:X *57:6 38 
2 *57:6 *57:8 7.18786 
3 *57:8 *57:14 28.34 
4 *57:14 *879:B 23 
5 *57:8 *57:21 15 
6 *57:21 *57:23 38.2593 
7 *57:23 *57:25 15 
8 *57:25 *57:27 8.24429 
9 *57:27 *878:B1_N 45.1879 
10 *57:27 *885:D 38 
11 *57:25 *881:A2 46.9486 
12 *57:6 *57:62 41.9907 
13 *57:62 *880:C 23 
*END

*D_NET *58 0.0168009
*CONN
*I *882:A I *D sky130_fd_sc_hd__and2_1
*I *884:B I *D sky130_fd_sc_hd__xnor2_1
*I *880:Y O *D sky130_fd_sc_hd__nand3_2
*CAP
1 *882:A 0
2 *884:B 0
3 *880:Y 8.70102e-05
4 *58:33 0.00248164
5 *58:29 0.00265067
6 *58:20 0.000790338
7 *58:14 0.000959362
8 *58:12 0.00306952
9 *58:10 0.00306952
10 *58:8 8.70102e-05
11 *58:8 *93:18 0
12 *58:12 *891:CLK 0.000316731
13 *58:12 *899:CLK 0.000152382
14 *58:12 *86:8 9.70802e-05
15 *58:12 *89:8 5.14686e-05
16 *58:20 *828:A1 0.000101483
17 *58:20 *96:40 0.000132671
18 *58:20 *115:35 4.97862e-05
19 *58:20 *116:29 0.0001296
20 *58:20 *117:16 0
21 *58:33 *915:A 5.8118e-05
22 *58:33 *59:12 0.00096248
23 *58:33 *110:6 0.000268015
24 *28:10 *58:20 0.000324484
25 *28:10 *58:29 0.000148603
26 *33:8 *58:20 0.000600709
27 *33:8 *58:29 0.00014739
28 *37:16 *58:8 6.48356e-05
*RES
1 *880:Y *58:8 39.9057 
2 *58:8 *58:10 15 
3 *58:10 *58:12 39.2121 
4 *58:12 *58:14 15 
5 *58:14 *58:20 35.2793 
6 *58:20 *884:B 23 
7 *58:14 *58:29 19.3707 
8 *58:29 *58:33 40.6621 
9 *58:33 *882:A 23 
*END

*D_NET *59 0.00385574
*CONN
*I *882:B I *D sky130_fd_sc_hd__and2_1
*I *881:X O *D sky130_fd_sc_hd__a21o_1
*CAP
1 *882:B 0
2 *881:X 0
3 *59:12 0.000951533
4 *59:6 0.000951533
5 *59:12 *105:70 0
6 *59:12 *116:38 0.000990198
7 *58:33 *59:12 0.00096248
*RES
1 *881:X *59:6 38 
2 *59:6 *59:12 38.8007 
3 *59:12 *882:B 23 
*END

*D_NET *60 0.00654958
*CONN
*I *883:A I *D sky130_fd_sc_hd__buf_1
*I *882:X O *D sky130_fd_sc_hd__and2_1
*CAP
1 *883:A 0.000561894
2 *882:X 0
3 *60:10 0.00154902
4 *60:6 0.000987128
5 *883:A *97:25 0.000757913
6 *60:10 *63:10 0
7 *60:10 *73:14 0
8 *60:10 *97:27 0.00147813
9 *60:10 *97:37 0.000594066
10 *34:10 *60:10 0
11 *36:14 *883:A 0.000621429
*RES
1 *882:X *60:6 38 
2 *60:6 *60:10 42.26 
3 *60:10 *883:A 38.8671 
*END

*D_NET *61 0.00338404
*CONN
*I *886:B I *D sky130_fd_sc_hd__xor2_1
*I *885:X O *D sky130_fd_sc_hd__and4_1
*CAP
1 *886:B 0
2 *885:X 0.00119744
3 *61:12 0.000168833
4 *61:6 0.00136628
5 *61:6 *92:23 3.2277e-05
6 *878:B1_N *61:6 1.73995e-05
7 *30:6 *61:6 0.000415769
8 *55:16 *61:6 0.000186041
*RES
1 *885:X *61:6 39.82 
2 *61:6 *61:12 32.2579 
3 *61:12 *886:B 23 
*END

*D_NET *62 0.0085307
*CONN
*I *825:A1 I *D sky130_fd_sc_hd__o21ba_1
*I *822:Y O *D sky130_fd_sc_hd__inv_2
*CAP
1 *825:A1 0
2 *822:Y 0.00099328
3 *62:10 0.00165292
4 *62:8 0.00165292
5 *62:6 0.00099328
6 *62:6 *822:A 5.56356e-05
7 *62:6 *823:B 3.22118e-05
8 *62:6 *115:77 0.000388848
9 *62:6 *118:89 0.000227417
10 *62:10 *69:10 0.000425084
11 *62:10 *108:49 0.000304215
12 *32:10 *62:10 0.00180489
*RES
1 *822:Y *62:6 42.2021 
2 *62:6 *62:8 15 
3 *62:8 *62:10 41.6979 
4 *62:10 *825:A1 38 
*END

*D_NET *63 0.00868176
*CONN
*I *824:A I *D sky130_fd_sc_hd__clkbuf_2
*I *823:X O *D sky130_fd_sc_hd__or3_1
*CAP
1 *824:A 0.00038896
2 *823:X 0
3 *63:16 0.00230272
4 *63:10 0.00348008
5 *63:6 0.00156633
6 *824:A *862:A 0.000442508
7 *824:A *83:23 0.000135037
8 *824:A *108:49 6.64565e-05
9 *63:10 *117:79 0.000128534
10 *63:10 *117:90 0
11 *63:16 *99:16 2.80201e-05
12 *914:RESET_B *63:16 8.23816e-05
13 *34:10 *63:10 0
14 *48:8 *63:16 6.07397e-05
15 *60:10 *63:10 0
*RES
1 *823:X *63:6 38 
2 *63:6 *63:10 46.1336 
3 *63:10 *63:16 39.1943 
4 *63:16 *824:A 45.2914 
*END

*D_NET *64 0.00768994
*CONN
*I *829:B I *D sky130_fd_sc_hd__and3_1
*I *831:B I *D sky130_fd_sc_hd__xnor2_1
*I *827:Y O *D sky130_fd_sc_hd__nand3_1
*CAP
1 *829:B 0
2 *831:B 0.000343347
3 *827:Y 3.65827e-05
4 *64:31 0.000972268
5 *64:8 0.0013522
6 *831:B *91:14 6.51997e-06
7 *831:B *114:22 9.15707e-05
8 *831:B *114:34 0.000192032
9 *831:B *116:29 4.69521e-05
10 *831:B *118:29 0.000717119
11 *64:8 *114:22 7.70737e-05
12 *64:31 *66:6 0.00111227
13 *64:31 *93:25 0.00201607
14 *912:D *64:31 7.50734e-05
15 *23:8 *831:B 0.000493692
16 *23:18 *831:B 0.000113832
17 *23:18 *64:8 4.334e-05
*RES
1 *827:Y *64:8 39.2014 
2 *64:8 *831:B 49.4343 
3 *64:8 *64:31 44.6421 
4 *64:31 *829:B 23 
*END

*D_NET *65 0.00073876
*CONN
*I *829:C I *D sky130_fd_sc_hd__and3_1
*I *828:X O *D sky130_fd_sc_hd__a21o_1
*CAP
1 *829:C 1.5016e-05
2 *828:X 0.000198288
3 *65:10 0.000213304
4 *829:C *93:25 1.95448e-05
5 *65:10 *832:B1 9.01032e-05
6 *65:10 *67:10 0.000183997
7 *65:10 *96:40 1.24298e-05
8 *65:10 *108:12 6.07611e-06
*RES
1 *828:X *65:10 41.2314 
2 *65:10 *829:C 38.2279 
*END

*D_NET *66 0.00786492
*CONN
*I *830:A I *D sky130_fd_sc_hd__buf_1
*I *829:X O *D sky130_fd_sc_hd__and3_1
*CAP
1 *830:A 9.80009e-05
2 *829:X 0.00175401
3 *66:12 0.000778197
4 *66:6 0.00243421
5 *830:A *91:46 0.000265472
6 *66:12 *114:20 0.000314768
7 *66:12 *114:22 0.000299014
8 *66:12 *114:34 2.81425e-05
9 *912:D *66:6 0.000100477
10 *21:24 *66:12 8.22421e-06
11 *32:10 *66:12 0.000504745
12 *55:8 *830:A 9.32948e-05
13 *57:27 *66:12 7.40979e-05
14 *64:31 *66:6 0.00111227
*RES
1 *829:X *66:6 47.9193 
2 *66:6 *66:12 48.1043 
3 *66:12 *830:A 26.0036 
*END

*D_NET *67 0.015281
*CONN
*I *834:B1 I *D sky130_fd_sc_hd__o31ai_1
*I *833:A I *D sky130_fd_sc_hd__inv_2
*I *839:B1 I *D sky130_fd_sc_hd__o21ai_1
*I *832:Y O *D sky130_fd_sc_hd__o21ai_2
*CAP
1 *834:B1 0
2 *833:A 0.000181098
3 *839:B1 7.93664e-05
4 *832:Y 3.31202e-05
5 *67:29 0.00107268
6 *67:21 0.00234057
7 *67:10 0.00207831
8 *67:8 0.000583072
9 *833:A *112:6 0.000254447
10 *833:A *117:64 0.000157574
11 *833:A *117:71 0.000336296
12 *839:B1 *839:A2 0.000487147
13 *839:B1 *115:35 0.000487147
14 *67:8 *832:B1 6.17437e-06
15 *67:8 *876:D 1.47795e-05
16 *67:10 *832:A2 4.70578e-05
17 *67:10 *832:B1 6.9112e-05
18 *67:10 *108:12 9.60779e-05
19 *67:10 *117:16 5.12411e-05
20 *67:10 *117:18 0.000114896
21 *67:21 *70:22 0
22 *67:21 *108:12 0.000543318
23 *67:21 *108:34 0.00107223
24 *67:21 *117:16 0.000826991
25 *67:21 *117:53 4.98543e-05
26 *67:29 *96:8 0.000781054
27 *67:29 *112:6 0.00214995
28 *67:29 *117:64 0.00105061
29 *67:29 *118:61 0.000110155
30 *12:23 *67:21 2.26406e-05
31 *65:10 *67:10 0.000183997
*RES
1 *832:Y *67:8 38.6214 
2 *67:8 *67:10 11.7657 
3 *67:10 *839:B1 43.3857 
4 *67:10 *67:21 39.585 
5 *67:21 *67:29 47.2314 
6 *67:29 *833:A 29.38 
7 *67:29 *834:B1 23 
*END

*D_NET *68 0.000951716
*CONN
*I *836:A I *D sky130_fd_sc_hd__clkbuf_1
*I *835:X O *D sky130_fd_sc_hd__or3_1
*CAP
1 *836:A 0.00014649
2 *835:X 6.54739e-05
3 *68:8 0.000211964
4 *836:A *81:38 5.58003e-05
5 *836:A *100:24 0.000364782
6 *68:8 *70:22 4.04496e-05
7 *33:8 *68:8 6.67555e-05
*RES
1 *835:X *68:8 39.9057 
2 *68:8 *836:A 41.9564 
*END

*D_NET *69 0.0169439
*CONN
*I *838:A2 I *D sky130_fd_sc_hd__a211o_1
*I *839:A2 I *D sky130_fd_sc_hd__o21ai_1
*I *837:Y O *D sky130_fd_sc_hd__inv_2
*CAP
1 *838:A2 0.000348754
2 *839:A2 0.000830735
3 *837:Y 0.000362863
4 *69:22 0.00183678
5 *69:18 0.0013478
6 *69:10 0.00179603
7 *69:8 0.00146838
8 *838:A2 *113:6 0.000699315
9 *839:A2 *867:A 0.000231502
10 *839:A2 *90:18 0.000878199
11 *839:A2 *90:24 1.03955e-05
12 *839:A2 *115:35 0.000136697
13 *69:8 *922:A 0.000301374
14 *69:10 *85:123 0
15 *69:10 *100:20 0.000593985
16 *69:18 *904:CLK 1.41077e-05
17 *69:18 *85:88 5.42593e-05
18 *69:18 *90:8 9.58714e-05
19 *69:18 *100:20 0.000169674
20 *69:22 *85:99 4.54033e-05
21 *69:22 *89:72 0.000246748
22 *69:22 *90:10 0.000126198
23 *69:22 *90:18 7.76364e-06
24 *69:22 *99:16 0.00232007
25 *839:B1 *839:A2 0.000487147
26 *867:C *839:A2 0.000209396
27 *28:6 *839:A2 0.00078627
28 *32:10 *69:10 0.000266642
29 *32:10 *69:18 8.26569e-05
30 *48:16 *69:22 0.000176275
31 *48:24 *69:22 0.00058755
32 *62:10 *69:10 0.000425084
*RES
1 *837:Y *69:8 43.8621 
2 *69:8 *69:10 27.26 
3 *69:10 *69:18 35.7379 
4 *69:18 *69:22 46.8379 
5 *69:22 *839:A2 49.3486 
6 *69:10 *838:A2 46.7207 
*END

*D_NET *70 0.0132694
*CONN
*I *845:B I *D sky130_fd_sc_hd__xnor2_1
*I *843:A I *D sky130_fd_sc_hd__and2_1
*I *841:Y O *D sky130_fd_sc_hd__nand2_1
*CAP
1 *845:B 0
2 *843:A 0.000354626
3 *841:Y 1.67991e-05
4 *70:33 0.00158711
5 *70:22 0.00121692
6 *70:18 0.0013798
7 *70:6 0.00212141
8 *843:A *843:B 5.3304e-05
9 *843:A *90:71 0.000398204
10 *843:A *99:40 0.000346857
11 *70:18 *841:B 1.2862e-05
12 *70:18 *887:A 5.5792e-05
13 *70:18 *74:12 1.24376e-05
14 *70:18 *96:32 7.30731e-05
15 *70:18 *98:8 8.2385e-05
16 *70:22 *835:A 2.46922e-05
17 *70:22 *108:34 0
18 *70:22 *115:100 0.000613541
19 *70:22 *117:16 0.0010181
20 *70:22 *117:53 0.000164282
21 *70:33 *845:A 5.40337e-05
22 *70:33 *847:A 0.000983045
23 *70:33 *74:6 5.3304e-05
24 *70:33 *74:12 0.000163466
25 *70:33 *83:23 3.55559e-05
26 *70:33 *86:52 6.83629e-05
27 *70:33 *114:16 0.000413284
28 *28:10 *70:22 0.000567678
29 *33:8 *70:22 0
30 *36:8 *70:33 0.000880237
31 *44:8 *70:18 0.000100477
32 *51:47 *843:A 0.00037728
33 *67:21 *70:22 0
34 *68:8 *70:22 4.04496e-05
*RES
1 *841:Y *70:6 23.4971 
2 *70:6 *70:18 25.3571 
3 *70:18 *70:22 39.795 
4 *70:22 *843:A 35.0557 
5 *70:6 *70:33 33.5157 
6 *70:33 *845:B 23 
*END

*D_NET *71 0.0127378
*CONN
*I *843:B I *D sky130_fd_sc_hd__and2_1
*I *842:X O *D sky130_fd_sc_hd__or2_1
*CAP
1 *843:B 6.27473e-05
2 *842:X 0.000828327
3 *71:10 0.00259553
4 *71:8 0.00253278
5 *71:6 0.000828327
6 *843:B *90:71 2.07026e-05
7 *71:6 *876:D 6.74232e-05
8 *71:6 *89:14 0.000854796
9 *71:6 *90:41 5.82853e-05
10 *71:10 *84:24 0
11 *71:10 *84:91 0
12 *71:10 *84:106 0
13 *71:10 *86:27 0
14 *71:10 *89:14 0
15 *71:10 *89:21 0
16 *71:10 *110:12 0.0014323
17 *71:10 *110:18 0.000970979
18 *843:A *843:B 5.3304e-05
19 *40:10 *71:10 0.00225287
20 *51:47 *843:B 0.000179447
21 *57:14 *71:10 0
*RES
1 *842:X *71:6 41.7257 
2 *71:6 *71:8 15 
3 *71:8 *71:10 58.9529 
4 *71:10 *843:B 40.0714 
*END

*D_NET *72 0.00483956
*CONN
*I *844:A I *D sky130_fd_sc_hd__clkbuf_1
*I *843:X O *D sky130_fd_sc_hd__and2_1
*CAP
1 *844:A 0
2 *843:X 0.000188102
3 *72:12 0.000557901
4 *72:8 0.000746004
5 *72:12 *111:12 0.000933165
6 *72:12 *111:18 0.000341925
7 *869:B *72:8 7.48608e-05
8 *21:24 *72:12 0.000311137
9 *51:47 *72:8 4.50987e-05
10 *54:8 *72:12 0.00164137
*RES
1 *843:X *72:8 40.5271 
2 *72:8 *72:12 36.9779 
3 *72:12 *844:A 23 
*END

*D_NET *73 0.00637005
*CONN
*I *847:A I *D sky130_fd_sc_hd__buf_2
*I *846:X O *D sky130_fd_sc_hd__and4_1
*CAP
1 *847:A 0.00119505
2 *846:X 6.80327e-05
3 *73:14 0.00180127
4 *73:10 0.000674258
5 *847:A *83:23 5.79559e-05
6 *847:A *114:16 0.00041079
7 *73:10 *846:A 2.3191e-05
8 *73:10 *98:41 5.37348e-06
9 *73:14 *98:41 0.000540079
10 *73:14 *115:51 0.000433017
11 *29:8 *73:10 5.50049e-05
12 *34:10 *73:14 0.000122984
13 *43:10 *73:14 0
14 *60:10 *73:14 0
15 *70:33 *847:A 0.000983045
*RES
1 *846:X *73:10 39.595 
2 *73:10 *73:14 32.7521 
3 *73:14 *847:A 47.9193 
*END

*D_NET *74 0.032757
*CONN
*I *877:A I *D sky130_fd_sc_hd__and4_2
*I *858:A I *D sky130_fd_sc_hd__and2_2
*I *867:A I *D sky130_fd_sc_hd__and3_1
*I *849:A_N I *D sky130_fd_sc_hd__and2b_1
*I *851:B I *D sky130_fd_sc_hd__xor2_1
*I *852:C I *D sky130_fd_sc_hd__and3_1
*I *853:A2 I *D sky130_fd_sc_hd__a21oi_1
*I *847:X O *D sky130_fd_sc_hd__buf_2
*CAP
1 *877:A 0
2 *858:A 0.000352229
3 *867:A 0.000256978
4 *849:A_N 0
5 *851:B 0.000422087
6 *852:C 0
7 *853:A2 0
8 *847:X 4.09885e-05
9 *74:93 0.00104586
10 *74:85 0.00139299
11 *74:70 0.00149976
12 *74:61 0.00084697
13 *74:44 0.00128564
14 *74:32 0.000249475
15 *74:26 0.000789124
16 *74:16 0.00195164
17 *74:12 0.00198376
18 *74:6 0.0011396
19 *851:B *90:61 4.8927e-05
20 *851:B *114:70 0.000213125
21 *858:A *858:B 0.000633206
22 *858:A *81:8 0.000439631
23 *867:A *118:12 0.000418626
24 *74:12 *76:18 0.00106265
25 *74:12 *86:38 0
26 *74:12 *105:49 0.000967481
27 *74:16 *852:A 0.00014193
28 *74:16 *114:70 7.91876e-05
29 *74:16 *117:14 0.000392947
30 *74:26 *77:6 0.00069272
31 *74:26 *77:10 0.000223692
32 *74:26 *102:16 0.000713211
33 *74:26 *117:14 0.000968481
34 *74:32 *99:63 0.0010236
35 *74:32 *100:41 0.000935561
36 *74:44 *76:18 6.25829e-05
37 *74:44 *105:49 5.46706e-05
38 *74:61 *848:A2 1.26018e-05
39 *74:61 *75:12 0.000965087
40 *74:61 *76:8 5.56356e-05
41 *74:61 *76:18 0.000593903
42 *74:61 *95:10 4.68476e-05
43 *74:61 *97:12 0.000141038
44 *74:61 *105:33 0.000154397
45 *74:61 *105:49 0.00044616
46 *74:61 *115:77 0.000148647
47 *74:70 *86:80 0
48 *74:70 *87:20 0.000157147
49 *74:70 *95:10 8.86968e-05
50 *74:70 *118:12 0.000783519
51 *74:70 *118:44 0.000362154
52 *74:93 *80:39 5.3304e-05
53 *74:93 *81:10 0
54 *74:93 *102:31 0
55 *839:A2 *867:A 0.000231502
56 *867:C *867:A 0.000128378
57 *25:10 *74:26 0.000722332
58 *44:16 *74:12 1.0092e-05
59 *49:10 *74:61 8.87758e-05
60 *50:23 *74:85 0.00177268
61 *50:23 *74:93 0.000142636
62 *51:8 *867:A 0.000416395
63 *51:8 *74:70 0.000323269
64 *54:23 *74:85 0.00116297
65 *54:23 *74:93 6.19722e-05
66 *56:12 *74:93 0.00112833
67 *70:18 *74:12 1.24376e-05
68 *70:33 *74:6 5.3304e-05
69 *70:33 *74:12 0.000163466
*RES
1 *847:X *74:6 23.6214 
2 *74:6 *74:12 31.2814 
3 *74:12 *74:16 33.8086 
4 *74:16 *74:26 36.315 
5 *74:26 *74:32 27.0764 
6 *74:32 *853:A2 23 
7 *74:16 *852:C 23 
8 *74:12 *74:44 0.849286 
9 *74:44 *851:B 45.7886 
10 *74:44 *74:61 40.3336 
11 *74:61 *849:A_N 23 
12 *74:6 *74:70 30.6393 
13 *74:70 *867:A 46.3064 
14 *74:70 *74:85 38.9664 
15 *74:85 *74:93 45.805 
16 *74:93 *858:A 35.5321 
17 *74:85 *877:A 23 
*END

*D_NET *75 0.00297702
*CONN
*I *849:B I *D sky130_fd_sc_hd__and2b_1
*I *848:X O *D sky130_fd_sc_hd__a31o_1
*CAP
1 *849:B 0
2 *848:X 0
3 *75:12 0.000605466
4 *75:6 0.000605466
5 *75:12 *76:16 0
6 *75:12 *87:10 0.000142724
7 *75:12 *95:10 0.000295441
8 *75:12 *115:77 0.000362832
9 *74:61 *75:12 0.000965087
*RES
1 *848:X *75:6 38 
2 *75:6 *75:12 32.835 
3 *75:12 *849:B 23 
*END

*D_NET *76 0.0179278
*CONN
*I *850:A I *D sky130_fd_sc_hd__buf_1
*I *849:X O *D sky130_fd_sc_hd__and2b_1
*CAP
1 *850:A 0
2 *849:X 0.000197817
3 *76:24 0.00130125
4 *76:18 0.00276975
5 *76:16 0.00220108
6 *76:8 0.000930393
7 *76:8 *115:77 7.95355e-05
8 *76:16 *890:A 2.64616e-05
9 *76:16 *87:10 0.000829386
10 *76:16 *90:65 0
11 *76:16 *105:33 2.43944e-05
12 *76:18 *87:35 0.000160125
13 *76:18 *95:10 0.00346603
14 *76:18 *96:36 0
15 *76:24 *115:14 0.00103239
16 *76:24 *115:18 1.56665e-05
17 *76:24 *117:42 0.00134352
18 *867:C *76:18 0
19 *44:16 *76:18 0.000601313
20 *47:8 *76:16 2.45549e-06
21 *57:23 *76:24 0.00117142
22 *74:12 *76:18 0.00106265
23 *74:44 *76:18 6.25829e-05
24 *74:61 *76:8 5.56356e-05
25 *74:61 *76:18 0.000593903
26 *75:12 *76:16 0
*RES
1 *849:X *76:8 41.0036 
2 *76:8 *76:16 45.9293 
3 *76:16 *76:18 47.3321 
4 *76:18 *76:24 49.4686 
5 *76:24 *850:A 23 
*END

*D_NET *77 0.0090748
*CONN
*I *854:A I *D sky130_fd_sc_hd__nor2_1
*I *856:B I *D sky130_fd_sc_hd__and2_1
*I *855:B I *D sky130_fd_sc_hd__xor2_1
*I *852:X O *D sky130_fd_sc_hd__and3_1
*CAP
1 *854:A 0
2 *856:B 0.000360181
3 *855:B 0.000283915
4 *852:X 0.000522241
5 *77:38 0.000399736
6 *77:10 0.00142945
7 *77:6 0.00170733
8 *855:B *855:A 0.000536989
9 *855:B *856:A 7.76364e-06
10 *855:B *79:14 0
11 *855:B *101:10 9.48381e-06
12 *855:B *113:8 2.93747e-05
13 *855:B *113:12 0.000111852
14 *856:B *856:A 5.5792e-05
15 *856:B *79:8 4.98295e-05
16 *856:B *79:14 0
17 *856:B *113:12 0.000474058
18 *77:10 *117:14 0.000478806
19 *77:38 *78:16 0.000321792
20 *40:6 *855:B 0.000533213
21 *42:14 *77:38 0.000784742
22 *52:8 *77:38 6.18399e-05
23 *74:26 *77:6 0.00069272
24 *74:26 *77:10 0.000223692
*RES
1 *852:X *77:6 30.7679 
2 *77:6 *77:10 27.0557 
3 *77:10 *855:B 47.5493 
4 *77:10 *856:B 46.5343 
5 *77:6 *77:38 43.1743 
6 *77:38 *854:A 23 
*END

*D_NET *78 0.00554207
*CONN
*I *854:B I *D sky130_fd_sc_hd__nor2_1
*I *853:Y O *D sky130_fd_sc_hd__a21oi_1
*CAP
1 *854:B 0
2 *853:Y 0.000475294
3 *78:16 0.000759727
4 *78:10 0.00123502
5 *78:10 *100:41 0.00101729
6 *78:16 *102:16 0.00167466
7 *78:16 *102:29 5.82853e-05
8 *52:8 *78:16 0
9 *77:38 *78:16 0.000321792
*RES
1 *853:Y *78:10 49.6 
2 *78:10 *78:16 37.9514 
3 *78:16 *854:B 23 
*END

*D_NET *79 0.00287913
*CONN
*I *859:A2 I *D sky130_fd_sc_hd__o21ba_1
*I *856:X O *D sky130_fd_sc_hd__and2_1
*CAP
1 *859:A2 0
2 *856:X 0.000242511
3 *79:14 0.00106125
4 *79:8 0.00130377
5 *79:14 *859:A1 5.5792e-05
6 *79:14 *81:23 0
7 *79:14 *101:10 0
8 *855:B *79:14 0
9 *856:B *79:8 4.98295e-05
10 *856:B *79:14 0
11 *31:10 *79:14 0.000165973
12 *41:10 *79:14 0
*RES
1 *856:X *79:8 41.0036 
2 *79:8 *79:14 34.43 
3 *79:14 *859:A2 23 
*END

*D_NET *80 0.0134009
*CONN
*I *867:B I *D sky130_fd_sc_hd__and3_1
*I *877:B I *D sky130_fd_sc_hd__and4_2
*I *858:B I *D sky130_fd_sc_hd__and2_2
*I *857:X O *D sky130_fd_sc_hd__and4_1
*CAP
1 *867:B 0.00011449
2 *877:B 0
3 *858:B 0.000833318
4 *857:X 0.000172554
5 *80:39 0.000271799
6 *80:22 0.00122722
7 *80:14 0.00232681
8 *80:10 0.00248023
9 *80:8 0.000877191
10 *858:B *873:A1 5.50049e-05
11 *858:B *81:8 2.16575e-05
12 *858:B *90:24 0.00021477
13 *867:B *90:18 5.56356e-05
14 *867:B *118:12 1.84329e-05
15 *80:8 *102:39 5.74393e-05
16 *80:10 *85:59 0
17 *80:10 *118:12 0.000123941
18 *80:10 *118:20 6.49895e-05
19 *80:22 *84:24 0.000167141
20 *80:22 *90:41 0
21 *80:22 *102:31 0.000111852
22 *80:39 *84:18 0.000207498
23 *80:39 *84:24 0.000369929
24 *80:39 *111:12 6.07929e-05
25 *858:A *858:B 0.000633206
26 *26:16 *80:39 0.000244517
27 *51:8 *867:B 1.14452e-05
28 *54:23 *80:39 5.3304e-05
29 *57:8 *80:39 6.53609e-05
30 *57:23 *80:14 0.00236513
31 *57:23 *80:22 0.00014196
32 *74:93 *80:39 5.3304e-05
*RES
1 *857:X *80:8 40.5271 
2 *80:8 *80:10 11.4136 
3 *80:10 *80:14 41.3486 
4 *80:14 *80:22 36.4629 
5 *80:22 *858:B 40.6693 
6 *80:14 *80:39 38.5136 
7 *80:39 *877:B 23 
8 *80:10 *867:B 39.8229 
*END

*D_NET *81 0.0215574
*CONN
*I *861:A2 I *D sky130_fd_sc_hd__a21oi_1
*I *862:C I *D sky130_fd_sc_hd__and3_1
*I *865:D I *D sky130_fd_sc_hd__and4_1
*I *860:B I *D sky130_fd_sc_hd__xor2_1
*I *859:B1_N I *D sky130_fd_sc_hd__o21ba_1
*I *858:X O *D sky130_fd_sc_hd__and2_2
*CAP
1 *861:A2 0
2 *862:C 0.00021871
3 *865:D 0
4 *860:B 0
5 *859:B1_N 0
6 *858:X 0.000710723
7 *81:68 0.00140194
8 *81:55 0.00162065
9 *81:53 0.00129308
10 *81:38 0.00160606
11 *81:34 0.00139728
12 *81:23 0.00200296
13 *81:10 0.00188498
14 *81:8 0.00167704
15 *862:C *862:A 5.31999e-05
16 *862:C *108:49 1.61361e-05
17 *81:23 *110:18 9.64943e-05
18 *81:23 *113:8 0.000816827
19 *81:34 *98:18 0.00028577
20 *81:34 *103:82 9.64943e-05
21 *81:34 *113:8 0.000623667
22 *81:38 *100:24 0.000193686
23 *81:53 *865:C 5.58003e-05
24 *81:53 *85:99 0.000196477
25 *81:53 *90:10 0.000540812
26 *81:53 *90:61 0.000321581
27 *81:53 *100:20 0.000967802
28 *81:53 *100:24 3.60429e-05
29 *81:68 *105:70 0.000197534
30 *81:68 *108:49 8.27116e-05
31 *836:A *81:38 5.58003e-05
32 *858:A *81:8 0.000439631
33 *858:B *81:8 2.16575e-05
34 *31:10 *81:10 0.000509237
35 *31:10 *81:23 4.91458e-05
36 *33:8 *81:34 0
37 *34:10 *81:68 0
38 *36:14 *81:53 0.00021176
39 *36:14 *81:68 5.7607e-05
40 *40:6 *81:23 0.00133533
41 *41:10 *81:23 0.000404937
42 *42:8 *81:23 6.37432e-05
43 *48:16 *862:C 1.40958e-05
44 *56:12 *81:10 0
45 *74:93 *81:10 0
46 *79:14 *81:23 0
*RES
1 *858:X *81:8 48.6264 
2 *81:8 *81:10 21.9779 
3 *81:10 *859:B1_N 38 
4 *81:10 *81:23 43.8343 
5 *81:23 *860:B 23 
6 *81:23 *81:34 37.2057 
7 *81:34 *81:38 19.9093 
8 *81:38 *865:D 23 
9 *81:38 *81:53 43.3164 
10 *81:53 *81:55 15 
11 *81:55 *862:C 25.61 
12 *81:55 *81:68 35.0721 
13 *81:68 *861:A2 38 
*END

*D_NET *82 0.00485855
*CONN
*I *863:A I *D sky130_fd_sc_hd__nor2_1
*I *861:Y O *D sky130_fd_sc_hd__a21oi_1
*CAP
1 *863:A 0
2 *861:Y 0
3 *82:14 0.000784072
4 *82:6 0.000784072
5 *82:14 *905:CLK 0.000195248
6 *82:14 *85:23 0.000611764
7 *82:14 *85:25 0.000389542
8 *82:14 *105:70 0.00119878
9 *863:B *82:14 0.000748256
10 *43:10 *82:14 0.000146822
*RES
1 *861:Y *82:6 38 
2 *82:6 *82:14 40.6857 
3 *82:14 *863:A 23 
*END

*D_NET *83 0.00384807
*CONN
*I *918:A I *D sky130_fd_sc_hd__clkbuf_16
*I *917:A I *D sky130_fd_sc_hd__clkbuf_16
*I *916:X O *D sky130_fd_sc_hd__clkbuf_16
*CAP
1 *918:A 0
2 *917:A 0.000796434
3 *916:X 0
4 *83:23 0.000604133
5 *83:4 0.00140057
6 *917:A *89:40 5.37348e-06
7 *917:A *108:6 0.00037376
8 *917:A *108:12 5.41385e-05
9 *83:23 *86:52 1.32314e-05
10 *83:23 *87:20 0.000112535
11 *83:23 *108:6 0.000135287
12 *83:23 *108:49 1.36806e-05
13 *83:23 *118:44 0.000110379
14 *824:A *83:23 0.000135037
15 *847:A *83:23 5.79559e-05
16 *70:33 *83:23 3.55559e-05
*RES
1 *916:X *83:4 23 
2 *83:4 *917:A 34.6 
3 *83:4 *83:23 38.99 
4 *83:23 *918:A 23 
*END

*D_NET *84 0.0210889
*CONN
*I *901:CLK I *D sky130_fd_sc_hd__dfxtp_1
*I *898:CLK I *D sky130_fd_sc_hd__dfxtp_1
*I *892:CLK I *D sky130_fd_sc_hd__dfxtp_1
*I *907:CLK I *D sky130_fd_sc_hd__dfxtp_1
*I *894:CLK I *D sky130_fd_sc_hd__dfxtp_1
*I *919:A I *D sky130_fd_sc_hd__clkinv_1
*I *891:CLK I *D sky130_fd_sc_hd__dfxtp_2
*I *899:CLK I *D sky130_fd_sc_hd__dfxtp_1
*I *902:CLK I *D sky130_fd_sc_hd__dfxtp_1
*I *908:CLK I *D sky130_fd_sc_hd__dfxtp_1
*I *917:X O *D sky130_fd_sc_hd__clkbuf_16
*CAP
1 *901:CLK 0
2 *898:CLK 0
3 *892:CLK 0
4 *907:CLK 0
5 *894:CLK 0
6 *919:A 0
7 *891:CLK 0.000307034
8 *899:CLK 0.00023659
9 *902:CLK 2.98179e-05
10 *908:CLK 0
11 *917:X 0
12 *84:114 0.000314608
13 *84:106 0.00174851
14 *84:91 0.00233904
15 *84:75 0.000550507
16 *84:65 0.00168104
17 *84:40 0.000543624
18 *84:24 0.000584408
19 *84:18 0.000895756
20 *84:16 0.000875668
21 *84:12 0.000702454
22 *84:10 0.00143753
23 *84:4 0.00110382
24 *891:CLK *86:8 8.9726e-05
25 *891:CLK *89:8 0.000158866
26 *891:CLK *103:16 0.000437979
27 *899:CLK *86:8 0.000240178
28 *84:16 *103:8 0
29 *84:24 *94:21 0.000249309
30 *84:91 *852:A 0.000240041
31 *84:91 *103:82 0.000587735
32 *84:91 *110:12 0
33 *84:106 *852:A 0.000483158
34 *84:106 *87:6 3.39868e-05
35 *84:106 *99:44 0.000102295
36 *84:106 *110:18 0
37 *84:114 *112:10 0
38 *894:D *84:75 0.000192315
39 *901:D *84:106 0.000118209
40 *901:D *84:114 0.000447864
41 *907:D *84:65 0.000260621
42 *22:10 *84:75 8.77898e-05
43 *24:14 *891:CLK 1.64354e-05
44 *25:10 *84:114 0.000199701
45 *26:16 *902:CLK 5.56356e-05
46 *26:16 *84:10 5.15096e-05
47 *26:16 *84:12 0.000181654
48 *26:16 *84:16 0.0011208
49 *26:16 *84:18 8.11447e-05
50 *32:22 *84:24 0.000139346
51 *35:8 *84:10 0.000233367
52 *35:8 *84:65 5.3304e-05
53 *35:8 *84:91 0.0003892
54 *40:10 *84:12 0
55 *40:10 *84:16 0
56 *42:14 *899:CLK 1.64354e-05
57 *51:47 *84:91 6.12094e-05
58 *51:47 *84:106 1.12919e-05
59 *57:8 *84:24 0
60 *57:23 *84:24 0.000183733
61 *58:12 *891:CLK 0.000316731
62 *58:12 *899:CLK 0.000152382
63 *71:10 *84:24 0
64 *71:10 *84:91 0
65 *71:10 *84:106 0
66 *80:22 *84:24 0.000167141
67 *80:39 *84:18 0.000207498
68 *80:39 *84:24 0.000369929
*RES
1 *917:X *84:4 23 
2 *84:4 *84:10 18.3764 
3 *84:10 *84:12 2.61 
4 *84:12 *84:16 15.5564 
5 *84:16 *84:18 5.42714 
6 *84:18 *84:24 29.5 
7 *84:24 *908:CLK 23 
8 *84:18 *902:CLK 38.6214 
9 *84:16 *84:40 15 
10 *84:40 *899:CLK 28.3857 
11 *84:40 *891:CLK 33.15 
12 *84:12 *919:A 38 
13 *84:10 *84:65 33.7257 
14 *84:65 *84:75 39.9221 
15 *84:75 *894:CLK 23 
16 *84:65 *907:CLK 23 
17 *84:4 *84:91 32.6071 
18 *84:91 *892:CLK 38 
19 *84:91 *84:106 41.97 
20 *84:106 *84:114 38.3479 
21 *84:114 *898:CLK 23 
22 *84:106 *901:CLK 23 
*END

*D_NET *85 0.0282803
*CONN
*I *910:CLK I *D sky130_fd_sc_hd__dfxtp_2
*I *909:CLK I *D sky130_fd_sc_hd__dfxtp_1
*I *895:CLK I *D sky130_fd_sc_hd__dfxtp_1
*I *893:CLK I *D sky130_fd_sc_hd__dfxtp_1
*I *904:CLK I *D sky130_fd_sc_hd__dfxtp_1
*I *900:CLK I *D sky130_fd_sc_hd__dfxtp_1
*I *903:CLK I *D sky130_fd_sc_hd__dfxtp_1
*I *906:CLK I *D sky130_fd_sc_hd__dfxtp_1
*I *897:CLK I *D sky130_fd_sc_hd__dfxtp_1
*I *905:CLK I *D sky130_fd_sc_hd__dfxtp_1
*I *896:CLK I *D sky130_fd_sc_hd__dfxtp_1
*I *918:X O *D sky130_fd_sc_hd__clkbuf_16
*CAP
1 *910:CLK 0.00108138
2 *909:CLK 0.00105601
3 *895:CLK 0.00037992
4 *893:CLK 0
5 *904:CLK 0.000440776
6 *900:CLK 0
7 *903:CLK 0.000385951
8 *906:CLK 0
9 *897:CLK 0.000517439
10 *905:CLK 0.000387306
11 *896:CLK 0
12 *918:X 0
13 *85:123 0.00243604
14 *85:108 0.0008026
15 *85:99 0.00055183
16 *85:88 0.00126431
17 *85:59 0.000845751
18 *85:53 0.0012317
19 *85:40 0.00158188
20 *85:25 0.00161655
21 *85:23 0.000524848
22 *85:12 0.000758563
23 *85:6 0.00079425
24 *895:CLK *99:8 5.3304e-05
25 *897:CLK *101:6 0.00012012
26 *903:CLK *86:80 0.000133316
27 *903:CLK *99:16 0
28 *904:CLK *90:8 2.93747e-05
29 *905:CLK *91:6 5.92537e-05
30 *905:CLK *105:70 0.000133915
31 *905:CLK *116:10 0.000220835
32 *909:CLK *95:8 1.05235e-05
33 *909:CLK *105:23 0.000125378
34 *85:12 *98:35 0.00072751
35 *85:12 *100:20 0.000219518
36 *85:23 *98:35 3.20631e-05
37 *85:23 *105:70 0.00011035
38 *85:40 *911:CLK 9.84851e-05
39 *85:59 *92:23 0.000540928
40 *85:59 *99:16 0
41 *85:59 *101:38 0.000941623
42 *85:88 *90:8 2.64616e-05
43 *85:88 *100:20 0.000628899
44 *85:99 *90:10 6.25829e-05
45 *85:99 *90:61 0.000311437
46 *85:99 *99:14 0.000380462
47 *85:99 *99:16 8.78031e-05
48 *85:108 *99:14 0.000236923
49 *85:123 *90:65 0
50 *85:123 *99:14 2.45092e-05
51 *85:123 *99:40 8.36198e-05
52 *895:D *895:CLK 1.64354e-05
53 *909:D *909:CLK 8.90341e-05
54 *910:D *910:CLK 8.90284e-05
55 *911:RESET_B *85:40 0.000222784
56 *912:RESET_B *905:CLK 5.3304e-05
57 *27:12 *903:CLK 0.000140927
58 *28:14 *904:CLK 0.000129529
59 *30:6 *85:59 0.000538435
60 *32:10 *85:12 0.000102135
61 *32:10 *85:88 0.000316046
62 *34:10 *905:CLK 0.000294746
63 *34:10 *85:23 0.000422505
64 *34:10 *85:25 0.000194105
65 *39:12 *85:12 0.000978145
66 *40:14 *897:CLK 0.000126403
67 *44:16 *897:CLK 0.000391707
68 *44:16 *85:40 0.000347145
69 *45:8 *905:CLK 3.47781e-05
70 *47:8 *895:CLK 0.000230043
71 *51:8 *903:CLK 0
72 *51:8 *85:59 0
73 *69:10 *85:123 0
74 *69:18 *904:CLK 1.41077e-05
75 *69:18 *85:88 5.42593e-05
76 *69:22 *85:99 4.54033e-05
77 *80:10 *85:59 0
78 *81:53 *85:99 0.000196477
79 *82:14 *905:CLK 0.000195248
80 *82:14 *85:23 0.000611764
81 *82:14 *85:25 0.000389542
*RES
1 *918:X *85:6 38 
2 *85:6 *85:12 30.0179 
3 *85:12 *896:CLK 23 
4 *85:12 *85:23 27.5114 
5 *85:23 *85:25 5.42714 
6 *85:25 *905:CLK 49.1236 
7 *85:25 *85:40 34.6786 
8 *85:40 *897:CLK 34.2686 
9 *85:40 *85:53 15 
10 *85:53 *85:59 35.0929 
11 *85:59 *906:CLK 23 
12 *85:53 *903:CLK 45.0014 
13 *85:23 *900:CLK 38 
14 *85:6 *85:88 26.1236 
15 *85:88 *904:CLK 30.7679 
16 *85:88 *85:99 26.7657 
17 *85:99 *893:CLK 38 
18 *85:99 *85:108 3.31429 
19 *85:108 *895:CLK 44.8357 
20 *85:108 *85:123 20.7793 
21 *85:123 *909:CLK 40.7936 
22 *85:123 *910:CLK 40.3171 
*END

*D_NET *86 0.023258
*CONN
*I *846:A I *D sky130_fd_sc_hd__and4_1
*I *848:A1 I *D sky130_fd_sc_hd__a31o_1
*I *841:A I *D sky130_fd_sc_hd__nand2_1
*I *920:A I *D sky130_fd_sc_hd__dlygate4sd3_1
*I *842:A I *D sky130_fd_sc_hd__or2_1
*I *891:Q O *D sky130_fd_sc_hd__dfxtp_2
*CAP
1 *846:A 0.00198651
2 *848:A1 0
3 *841:A 0
4 *920:A 0
5 *842:A 0
6 *891:Q 0
7 *86:80 0.00254481
8 *86:67 0.000878423
9 *86:52 0.000378858
10 *86:38 0.00170744
11 *86:34 0.00128158
12 *86:27 0.000895586
13 *86:12 0.000670746
14 *86:8 0.00197459
15 *86:4 0.0019263
16 *846:A *120:DIODE 2.4754e-05
17 *846:A *97:37 9.64943e-05
18 *846:A *98:41 0.000100069
19 *86:8 *103:16 9.64943e-05
20 *86:12 *842:B 6.90927e-05
21 *86:12 *94:10 0.000427455
22 *86:27 *89:14 9.28078e-06
23 *86:27 *89:21 0.000254666
24 *86:27 *103:16 0.000272581
25 *86:34 *106:6 0.000440169
26 *86:38 *96:32 6.10888e-05
27 *86:38 *98:18 8.05955e-05
28 *86:52 *887:A 0.000162179
29 *86:52 *87:20 2.26497e-05
30 *86:52 *105:70 0.000213059
31 *86:52 *118:44 2.26497e-05
32 *86:67 *848:A2 7.04286e-05
33 *86:67 *848:B1 5.58003e-05
34 *86:67 *887:A 2.05503e-05
35 *86:67 *96:22 0.000940104
36 *86:67 *98:18 0.00110667
37 *86:67 *105:49 7.11472e-06
38 *86:80 *99:16 0
39 *871:B *846:A 0.000729772
40 *875:D *86:80 0.000170398
41 *891:CLK *86:8 8.9726e-05
42 *899:CLK *86:8 0.000240178
43 *903:CLK *86:80 0.000133316
44 *22:6 *86:27 0.00020954
45 *22:6 *86:34 0.000133543
46 *22:6 *86:80 0.000237542
47 *24:6 *86:27 0.000173452
48 *24:6 *86:34 0.000415917
49 *29:8 *846:A 6.52787e-05
50 *31:10 *86:12 0.000501418
51 *42:14 *86:8 1.74843e-05
52 *44:16 *86:38 8.74458e-05
53 *49:10 *86:67 9.14681e-05
54 *50:8 *86:38 0.000401886
55 *51:8 *86:80 0
56 *51:18 *86:38 0.000203824
57 *51:18 *86:80 0.000152662
58 *52:37 *846:A 2.65879e-05
59 *54:23 *846:A 0.000175873
60 *58:12 *86:8 9.70802e-05
61 *70:33 *86:52 6.83629e-05
62 *71:10 *86:27 0
63 *73:10 *846:A 2.3191e-05
64 *74:12 *86:38 0
65 *74:70 *86:80 0
66 *83:23 *86:52 1.32314e-05
*RES
1 *891:Q *86:4 23 
2 *86:4 *86:8 32.7729 
3 *86:8 *86:12 33.4564 
4 *86:12 *842:A 23 
5 *86:4 *86:27 43.0086 
6 *86:27 *920:A 23 
7 *86:27 *86:34 9.19714 
8 *86:34 *86:38 26.2375 
9 *86:38 *86:52 34.094 
10 *86:52 *841:A 23 
11 *86:38 *86:67 40.0746 
12 *86:67 *848:A1 23 
13 *86:34 *86:80 42.4907 
14 *86:80 *846:A 49.8457 
*END

*D_NET *87 0.0174051
*CONN
*I *865:C I *D sky130_fd_sc_hd__and4_1
*I *866:C I *D sky130_fd_sc_hd__and4_1
*I *864:A I *D sky130_fd_sc_hd__xor2_1
*I *901:Q O *D sky130_fd_sc_hd__dfxtp_1
*CAP
1 *865:C 1.92001e-05
2 *866:C 0
3 *864:A 0
4 *901:Q 0.00157578
5 *87:35 0.000120102
6 *87:22 0.000879912
7 *87:20 0.00172272
8 *87:10 0.00119987
9 *87:6 0.00203374
10 *865:C *100:24 5.3304e-05
11 *87:10 *95:10 0.000186317
12 *87:10 *105:45 0.00017515
13 *87:20 *95:10 0.00166204
14 *87:20 *98:35 0.000135037
15 *87:20 *103:52 1.16455e-05
16 *87:20 *104:33 0.00114166
17 *87:20 *118:44 8.45062e-05
18 *87:22 *98:14 0.000452822
19 *87:22 *98:35 0.000257984
20 *87:35 *866:B 5.3304e-05
21 *87:35 *103:20 9.91548e-05
22 *39:12 *87:20 0.000125096
23 *39:12 *87:22 0.00255856
24 *44:16 *87:35 0.000160125
25 *48:37 *87:22 0.00118273
26 *74:70 *87:20 0.000157147
27 *75:12 *87:10 0.000142724
28 *76:16 *87:10 0.000829386
29 *76:18 *87:35 0.000160125
30 *81:53 *865:C 5.58003e-05
31 *83:23 *87:20 0.000112535
32 *84:106 *87:6 3.39868e-05
33 *86:52 *87:20 2.26497e-05
*RES
1 *901:Q *87:6 43.155 
2 *87:6 *87:10 28.5264 
3 *87:10 *87:20 40.0229 
4 *87:20 *87:22 32.5421 
5 *87:22 *864:A 23 
6 *87:20 *87:35 33.3557 
7 *87:35 *866:C 23 
8 *87:10 *865:C 38.6214 
*END

*D_NET *88 0.0112472
*CONN
*I *868:A1 I *D sky130_fd_sc_hd__o21ba_1
*I *866:D I *D sky130_fd_sc_hd__and4_1
*I *902:Q O *D sky130_fd_sc_hd__dfxtp_1
*CAP
1 *868:A1 0.000174964
2 *866:D 0
3 *902:Q 4.21149e-05
4 *88:21 0.00139686
5 *88:14 0.000919841
6 *88:10 0.00285263
7 *88:8 0.000753007
8 *88:10 *103:16 0.000196148
9 *88:10 *108:12 0
10 *88:14 *103:20 0.000671864
11 *88:21 *89:44 0.0019411
12 *88:21 *108:12 0
13 *88:21 *108:34 0
14 *88:21 *109:14 0
15 *24:14 *88:10 0.000193388
16 *35:14 *88:21 0.00104368
17 *40:14 *88:8 1.73399e-05
18 *49:16 *868:A1 0.000448463
19 *51:24 *88:10 4.21252e-05
20 *51:24 *88:21 0.000164264
21 *51:47 *88:21 0.000389393
*RES
1 *902:Q *88:8 38.6214 
2 *88:8 *88:10 14.2307 
3 *88:10 *88:14 28.485 
4 *88:14 *866:D 23 
5 *88:10 *88:21 35.7114 
6 *88:21 *868:A1 42.9093 
*END

*D_NET *89 0.0211493
*CONN
*I *875:A I *D sky130_fd_sc_hd__and4_1
*I *872:A I *D sky130_fd_sc_hd__and3_1
*I *869:A I *D sky130_fd_sc_hd__and2_1
*I *870:A I *D sky130_fd_sc_hd__nor2_1
*I *876:A I *D sky130_fd_sc_hd__and4_1
*I *903:Q O *D sky130_fd_sc_hd__dfxtp_1
*CAP
1 *875:A 0
2 *872:A 0
3 *869:A 0
4 *870:A 9.5059e-05
5 *876:A 0
6 *903:Q 0
7 *89:72 0.00105257
8 *89:54 0.000333518
9 *89:46 0.000831578
10 *89:44 0.00149902
11 *89:40 0.00128703
12 *89:21 0.000963685
13 *89:14 0.00145595
14 *89:8 0.00314581
15 *89:4 0.00215988
16 *870:A *98:8 0.000275472
17 *89:8 *103:16 5.50106e-05
18 *89:14 *832:B1 0
19 *89:14 *876:D 0.00116251
20 *89:14 *108:12 0
21 *89:21 *103:16 0.000686926
22 *89:21 *103:82 0.000380484
23 *89:40 *103:82 0.000240459
24 *89:40 *110:12 0
25 *89:44 *108:34 0
26 *89:44 *109:14 0
27 *89:46 *105:23 0.000336263
28 *89:54 *102:16 9.60606e-05
29 *89:54 *105:23 0.000356938
30 *89:54 *111:18 0
31 *870:B *870:A 0.000188927
32 *891:CLK *89:8 0.000158866
33 *917:A *89:40 5.37348e-06
34 *24:14 *89:8 1.74843e-05
35 *27:12 *89:72 0.000602043
36 *35:8 *89:40 0.000136743
37 *48:24 *89:72 0.000246748
38 *51:70 *89:54 2.07921e-05
39 *54:8 *89:54 0
40 *58:12 *89:8 5.14686e-05
41 *69:22 *89:72 0.000246748
42 *71:6 *89:14 0.000854796
43 *71:10 *89:14 0
44 *71:10 *89:21 0
45 *86:27 *89:14 9.28078e-06
46 *86:27 *89:21 0.000254666
47 *88:21 *89:44 0.0019411
*RES
1 *903:Q *89:4 23 
2 *89:4 *89:8 29.4379 
3 *89:8 *89:14 46.3407 
4 *89:14 *876:A 23 
5 *89:8 *89:21 14.935 
6 *89:21 *870:A 41.5007 
7 *89:21 *89:40 35.8414 
8 *89:40 *89:44 40.8514 
9 *89:44 *89:46 9.19714 
10 *89:46 *89:54 37.6229 
11 *89:54 *869:A 23 
12 *89:46 *872:A 23 
13 *89:4 *89:72 45.8464 
14 *89:72 *875:A 23 
*END

*D_NET *90 0.0246046
*CONN
*I *872:B I *D sky130_fd_sc_hd__and3_1
*I *875:B I *D sky130_fd_sc_hd__and4_1
*I *876:B I *D sky130_fd_sc_hd__and4_1
*I *873:A1 I *D sky130_fd_sc_hd__o21ba_1
*I *904:Q O *D sky130_fd_sc_hd__dfxtp_1
*CAP
1 *872:B 0
2 *875:B 0
3 *876:B 0
4 *873:A1 5.14119e-05
5 *904:Q 4.30574e-05
6 *90:71 0.00234415
7 *90:65 0.00282924
8 *90:61 0.000981353
9 *90:41 0.000563512
10 *90:24 0.00205291
11 *90:18 0.00287965
12 *90:10 0.00201656
13 *90:8 0.00111422
14 *90:10 *100:20 7.23889e-05
15 *90:18 *94:40 1.19796e-05
16 *90:18 *100:50 0
17 *90:24 *115:35 0.000784279
18 *90:41 *876:D 5.58003e-05
19 *90:41 *102:31 0
20 *90:61 *851:A 7.59979e-05
21 *90:61 *114:70 1.86083e-05
22 *90:65 *103:52 0
23 *90:71 *99:40 0.000113216
24 *90:71 *111:18 8.62876e-05
25 *839:A2 *90:18 0.000878199
26 *839:A2 *90:24 1.03955e-05
27 *843:A *90:71 0.000398204
28 *843:B *90:71 2.07026e-05
29 *851:B *90:61 4.8927e-05
30 *858:B *873:A1 5.50049e-05
31 *858:B *90:24 0.00021477
32 *867:B *90:18 5.56356e-05
33 *869:B *90:71 3.16665e-05
34 *873:A2 *873:A1 0
35 *873:A2 *90:24 0.000112463
36 *873:B1_N *90:24 0.000208786
37 *904:CLK *90:8 2.93747e-05
38 *914:RESET_B *90:65 0.000752292
39 *28:6 *90:24 0.000172534
40 *32:22 *90:41 4.62917e-05
41 *38:8 *90:65 0.000628293
42 *48:16 *90:10 0.000393167
43 *48:24 *90:10 0.000650503
44 *48:24 *90:18 0.000838642
45 *51:47 *90:71 4.91699e-05
46 *53:18 *90:10 0.000689434
47 *53:18 *90:18 0.00040474
48 *54:8 *90:71 4.334e-05
49 *56:12 *90:41 0.00022645
50 *69:18 *90:8 9.58714e-05
51 *69:22 *90:10 0.000126198
52 *69:22 *90:18 7.76364e-06
53 *71:6 *90:41 5.82853e-05
54 *76:16 *90:65 0
55 *80:22 *90:41 0
56 *81:53 *90:10 0.000540812
57 *81:53 *90:61 0.000321581
58 *85:88 *90:8 2.64616e-05
59 *85:99 *90:10 6.25829e-05
60 *85:99 *90:61 0.000311437
61 *85:123 *90:65 0
*RES
1 *904:Q *90:8 39.0979 
2 *90:8 *90:10 20.2171 
3 *90:10 *90:18 46.8171 
4 *90:18 *90:24 23.5314 
5 *90:24 *873:A1 24.1186 
6 *90:24 *90:41 41.6829 
7 *90:41 *876:B 23 
8 *90:10 *875:B 38 
9 *90:8 *90:61 39.28 
10 *90:61 *90:65 28.1743 
11 *90:65 *90:71 46.8379 
12 *90:71 *872:B 38 
*END

*D_NET *91 0.0184089
*CONN
*I *875:C I *D sky130_fd_sc_hd__and4_1
*I *874:A I *D sky130_fd_sc_hd__xor2_1
*I *876:C I *D sky130_fd_sc_hd__and4_1
*I *905:Q O *D sky130_fd_sc_hd__dfxtp_1
*CAP
1 *875:C 0
2 *874:A 2.77218e-05
3 *876:C 0.00139282
4 *905:Q 0.0013743
5 *91:46 0.000440715
6 *91:29 0.000856059
7 *91:20 0.00146376
8 *91:14 0.00195502
9 *91:8 0.0022717
10 *91:6 0.0013743
11 *876:C *876:D 0.00208565
12 *91:6 *116:10 5.45541e-05
13 *91:14 *884:A 0.000222025
14 *91:14 *96:40 0.000457969
15 *91:14 *114:34 0.000189848
16 *91:14 *116:29 2.03764e-06
17 *91:14 *118:29 0.000702472
18 *91:20 *832:A2 3.88725e-05
19 *830:A *91:46 0.000265472
20 *831:B *91:14 6.51997e-06
21 *871:B *874:A 5.3304e-05
22 *875:D *91:46 1.39431e-05
23 *905:CLK *91:6 5.92537e-05
24 *905:D *91:6 3.29537e-05
25 *912:RESET_B *91:6 3.93631e-05
26 *20:12 *91:29 0.000273074
27 *20:12 *91:46 0.000474291
28 *22:6 *91:46 0.000481948
29 *23:18 *91:14 0.000110267
30 *23:18 *91:29 0.000907735
31 *23:18 *91:46 0.00046501
32 *52:37 *874:A 2.64616e-05
33 *55:8 *91:46 4.27467e-05
34 *55:16 *91:14 4.80313e-05
35 *55:16 *91:29 0.000198678
*RES
1 *905:Q *91:6 40.7729 
2 *91:6 *91:8 15 
3 *91:8 *91:14 43.8343 
4 *91:14 *91:20 31.2014 
5 *91:20 *876:C 45.5371 
6 *91:8 *91:29 12.47 
7 *91:29 *874:A 38.6214 
8 *91:29 *91:46 28.3193 
9 *91:46 *875:C 23 
*END

*D_NET *92 0.00955612
*CONN
*I *878:A1 I *D sky130_fd_sc_hd__o21ba_1
*I *876:D I *D sky130_fd_sc_hd__and4_1
*I *906:Q O *D sky130_fd_sc_hd__dfxtp_1
*CAP
1 *878:A1 0
2 *876:D 0.000546099
3 *906:Q 2.18824e-05
4 *92:23 0.000972143
5 *92:6 0.00154012
6 *876:D *832:A2 5.58003e-05
7 *876:D *832:B1 0.000142678
8 *876:D *118:20 2.19667e-05
9 *92:23 *93:33 5.58003e-05
10 *92:23 *93:44 0.000811628
11 *92:23 *118:20 0.000305505
12 *876:C *876:D 0.00208565
13 *878:B1_N *92:23 0.00059451
14 *30:6 *92:23 0.000452732
15 *55:16 *92:23 7.58775e-05
16 *61:6 *92:23 3.2277e-05
17 *67:8 *876:D 1.47795e-05
18 *71:6 *876:D 6.74232e-05
19 *85:59 *92:23 0.000540928
20 *89:14 *876:D 0.00116251
21 *90:41 *876:D 5.58003e-05
*RES
1 *906:Q *92:6 23.4971 
2 *92:6 *876:D 47.4429 
3 *92:6 *92:23 30.3671 
4 *92:23 *878:A1 23 
*END

*D_NET *93 0.0162695
*CONN
*I *880:A I *D sky130_fd_sc_hd__nand3_2
*I *881:A1 I *D sky130_fd_sc_hd__a21o_1
*I *885:A I *D sky130_fd_sc_hd__and4_1
*I *879:A I *D sky130_fd_sc_hd__xor2_1
*I *907:Q O *D sky130_fd_sc_hd__dfxtp_1
*CAP
1 *880:A 6.85317e-05
2 *881:A1 0
3 *885:A 0
4 *879:A 0
5 *907:Q 0
6 *93:44 0.000915843
7 *93:33 0.0013426
8 *93:25 0.00255071
9 *93:18 0.00383468
10 *93:8 0.00244124
11 *93:6 0.000661992
12 *93:33 *885:B 0.000104265
13 *93:33 *99:16 0
14 *93:44 *116:29 9.55892e-05
15 *93:44 *116:38 8.05976e-05
16 *829:C *93:25 1.95448e-05
17 *37:16 *93:8 0
18 *37:16 *93:18 0
19 *55:16 *93:44 0.000377593
20 *57:14 *93:25 0.00089286
21 *58:8 *93:18 0
22 *64:31 *93:25 0.00201607
23 *92:23 *93:33 5.58003e-05
24 *92:23 *93:44 0.000811628
*RES
1 *907:Q *93:6 38 
2 *93:6 *93:8 13.1743 
3 *93:8 *93:18 46.7757 
4 *93:18 *879:A 23 
5 *93:18 *93:25 45.8821 
6 *93:25 *93:33 37.105 
7 *93:33 *885:A 23 
8 *93:33 *93:44 35.8386 
9 *93:44 *881:A1 38 
10 *93:8 *880:A 39.0979 
*END

*D_NET *94 0.0164517
*CONN
*I *881:B1 I *D sky130_fd_sc_hd__a21o_1
*I *885:B I *D sky130_fd_sc_hd__and4_1
*I *880:B I *D sky130_fd_sc_hd__nand3_2
*I *908:Q O *D sky130_fd_sc_hd__dfxtp_1
*CAP
1 *881:B1 0
2 *885:B 0.000316675
3 *880:B 0.000359099
4 *908:Q 0
5 *94:40 0.000639923
6 *94:23 0.000956599
7 *94:21 0.00344634
8 *94:10 0.00108326
9 *94:4 0.0041705
10 *885:B *100:50 0.000545258
11 *94:10 *101:10 0
12 *94:21 *115:18 0.00190595
13 *94:21 *117:42 2.02872e-05
14 *94:40 *99:16 0
15 *94:40 *100:50 0.000257624
16 *881:A2 *94:40 0.000561079
17 *22:6 *880:B 0.0002263
18 *31:10 *94:10 0
19 *32:22 *94:21 0.000141763
20 *48:24 *94:40 0.000121795
21 *57:23 *94:21 0.000328652
22 *57:62 *880:B 0.000577594
23 *84:24 *94:21 0.000249309
24 *86:12 *94:10 0.000427455
25 *90:18 *94:40 1.19796e-05
26 *93:33 *885:B 0.000104265
*RES
1 *908:Q *94:4 23 
2 *94:4 *94:10 45.6393 
3 *94:10 *880:B 31.7414 
4 *94:4 *94:21 51.1229 
5 *94:21 *94:23 15 
6 *94:23 *885:B 45.54 
7 *94:23 *94:40 27.8843 
8 *94:40 *881:B1 23 
*END

*D_NET *95 0.0152914
*CONN
*I *884:A I *D sky130_fd_sc_hd__xnor2_1
*I *885:C I *D sky130_fd_sc_hd__and4_1
*I *909:Q O *D sky130_fd_sc_hd__dfxtp_1
*CAP
1 *884:A 0.000124746
2 *885:C 0
3 *909:Q 5.80982e-05
4 *95:16 0.00088979
5 *95:10 0.00282984
6 *95:8 0.00187341
7 *884:A *96:40 0.000100477
8 *884:A *116:29 0.000175942
9 *95:10 *96:36 0
10 *95:10 *105:45 0.00017515
11 *95:10 *118:12 0.00184102
12 *95:10 *118:20 1.0092e-05
13 *95:16 *118:20 0.000135616
14 *909:CLK *95:8 1.05235e-05
15 *30:6 *95:16 0.00109925
16 *74:61 *95:10 4.68476e-05
17 *74:70 *95:10 8.86968e-05
18 *75:12 *95:10 0.000295441
19 *76:18 *95:10 0.00346603
20 *87:10 *95:10 0.000186317
21 *87:20 *95:10 0.00166204
22 *91:14 *884:A 0.000222025
*RES
1 *909:Q *95:8 38.6214 
2 *95:8 *95:10 58.6007 
3 *95:10 *95:16 28.9614 
4 *95:16 *885:C 23 
5 *95:10 *884:A 43.3857 
*END

*D_NET *96 0.0222314
*CONN
*I *848:A2 I *D sky130_fd_sc_hd__a31o_1
*I *841:B I *D sky130_fd_sc_hd__nand2_1
*I *120:DIODE I *D sky130_fd_sc_hd__diode_2
*I *846:B I *D sky130_fd_sc_hd__and4_1
*I *842:B I *D sky130_fd_sc_hd__or2_1
*I *892:Q O *D sky130_fd_sc_hd__dfxtp_1
*CAP
1 *848:A2 0.000201051
2 *841:B 6.16695e-05
3 *120:DIODE 0.000134316
4 *846:B 0
5 *842:B 8.1782e-05
6 *892:Q 0.000188814
7 *96:59 0.0033435
8 *96:40 0.00191476
9 *96:36 0.0027412
10 *96:32 0.00512775
11 *96:22 0.00161773
12 *96:8 0.000935581
13 *120:DIODE *97:37 5.50106e-05
14 *848:A2 *97:12 0.000143166
15 *848:A2 *105:49 0.000275734
16 *96:8 *117:53 5.3304e-05
17 *96:8 *117:64 0.000695012
18 *96:22 *105:49 0.000807228
19 *96:32 *887:A 5.3304e-05
20 *96:32 *98:18 0.000240168
21 *96:40 *828:B1 5.5792e-05
22 *96:40 *116:29 2.96073e-05
23 *846:A *120:DIODE 2.4754e-05
24 *867:C *96:32 1.86166e-05
25 *867:C *96:36 0.000183974
26 *884:A *96:40 0.000100477
27 *33:8 *96:32 0
28 *33:8 *96:36 0
29 *43:10 *96:59 3.87221e-06
30 *49:10 *848:A2 0.000168524
31 *50:8 *96:32 0.000351338
32 *58:20 *96:40 0.000132671
33 *65:10 *96:40 1.24298e-05
34 *67:29 *96:8 0.000781054
35 *70:18 *841:B 1.2862e-05
36 *70:18 *96:32 7.30731e-05
37 *74:61 *848:A2 1.26018e-05
38 *76:18 *96:36 0
39 *86:12 *842:B 6.90927e-05
40 *86:38 *96:32 6.10888e-05
41 *86:67 *848:A2 7.04286e-05
42 *86:67 *96:22 0.000940104
43 *91:14 *96:40 0.000457969
44 *95:10 *96:36 0
*RES
1 *892:Q *96:8 46.7207 
2 *96:8 *96:22 32.4725 
3 *96:22 *96:32 35.2379 
4 *96:32 *96:36 30.1111 
5 *96:36 *96:40 48.495 
6 *96:40 *842:B 39.9057 
7 *96:32 *96:59 37.5595 
8 *96:59 *846:B 23 
9 *96:59 *120:DIODE 25.5271 
10 *96:22 *841:B 24.2636 
11 *96:8 *848:A2 44.1314 
*END

*D_NET *97 0.011976
*CONN
*I *845:A I *D sky130_fd_sc_hd__xnor2_1
*I *846:C I *D sky130_fd_sc_hd__and4_1
*I *848:A3 I *D sky130_fd_sc_hd__a31o_1
*I *893:Q O *D sky130_fd_sc_hd__dfxtp_1
*CAP
1 *845:A 7.66116e-05
2 *846:C 0
3 *848:A3 0
4 *893:Q 0
5 *97:37 0.000857271
6 *97:27 0.00158483
7 *97:25 0.00260744
8 *97:12 0.000343916
9 *97:4 0.00230041
10 *97:12 *100:20 3.1898e-05
11 *97:12 *100:24 0.000109261
12 *97:25 *100:20 0.00028223
13 *97:27 *117:90 0.00027743
14 *97:37 *98:41 0
15 *120:DIODE *97:37 5.50106e-05
16 *846:A *97:37 9.64943e-05
17 *848:A2 *97:12 0.000143166
18 *883:A *97:25 0.000757913
19 *36:14 *97:25 6.67238e-05
20 *43:10 *97:37 6.23346e-05
21 *49:10 *97:12 5.5792e-05
22 *60:10 *97:27 0.00147813
23 *60:10 *97:37 0.000594066
24 *70:33 *845:A 5.40337e-05
25 *74:61 *97:12 0.000141038
*RES
1 *893:Q *97:4 23 
2 *97:4 *97:12 35.8621 
3 *97:12 *848:A3 23 
4 *97:4 *97:25 44.725 
5 *97:25 *97:27 19.865 
6 *97:27 *97:37 33.56 
7 *97:37 *846:C 23 
8 *97:27 *845:A 39.5743 
*END

*D_NET *98 0.0188527
*CONN
*I *846:D I *D sky130_fd_sc_hd__and4_1
*I *848:B1 I *D sky130_fd_sc_hd__a31o_1
*I *894:Q O *D sky130_fd_sc_hd__dfxtp_1
*CAP
1 *846:D 0
2 *848:B1 6.8771e-05
3 *894:Q 0
4 *98:41 0.0006478
5 *98:35 0.00224955
6 *98:18 0.00103464
7 *98:14 0.00274994
8 *98:8 0.00223604
9 *98:4 0.00205372
10 *98:8 *859:A1 0.000806489
11 *98:8 *102:29 0.000131563
12 *98:18 *887:A 2.46922e-05
13 *846:A *98:41 0.000100069
14 *870:A *98:8 0.000275472
15 *870:B *98:8 4.05745e-05
16 *28:10 *98:14 0.000162254
17 *33:8 *98:14 3.93804e-05
18 *33:8 *98:18 0
19 *39:12 *98:35 0.000533133
20 *48:37 *98:14 0.000447841
21 *48:37 *98:35 0.00120791
22 *53:12 *98:35 4.05745e-05
23 *70:18 *98:8 8.2385e-05
24 *73:10 *98:41 5.37348e-06
25 *73:14 *98:41 0.000540079
26 *81:34 *98:18 0.00028577
27 *85:12 *98:35 0.00072751
28 *85:23 *98:35 3.20631e-05
29 *86:38 *98:18 8.05955e-05
30 *86:67 *848:B1 5.58003e-05
31 *86:67 *98:18 0.00110667
32 *87:20 *98:35 0.000135037
33 *87:22 *98:14 0.000452822
34 *87:22 *98:35 0.000257984
35 *96:32 *98:18 0.000240168
36 *97:37 *98:41 0
*RES
1 *894:Q *98:4 23 
2 *98:4 *98:8 48.9714 
3 *98:8 *98:14 22.1671 
4 *98:14 *98:18 40.1471 
5 *98:18 *848:B1 39.0979 
6 *98:14 *98:35 48.06 
7 *98:35 *98:41 30.6807 
8 *98:41 *846:D 23 
*END

*D_NET *99 0.0220401
*CONN
*I *853:A1 I *D sky130_fd_sc_hd__a21oi_1
*I *852:A I *D sky130_fd_sc_hd__and3_1
*I *851:A I *D sky130_fd_sc_hd__xor2_1
*I *857:A I *D sky130_fd_sc_hd__and4_1
*I *895:Q O *D sky130_fd_sc_hd__dfxtp_1
*CAP
1 *853:A1 0
2 *852:A 0.000271804
3 *851:A 4.67547e-05
4 *857:A 5.29453e-05
5 *895:Q 0.000125325
6 *99:63 0.0016905
7 *99:44 0.002008
8 *99:40 0.00215805
9 *99:16 0.00258778
10 *99:14 0.00311468
11 *99:8 0.00277077
12 *851:A *114:70 5.01469e-05
13 *852:A *117:14 0.000140927
14 *857:A *857:B 5.68958e-05
15 *99:16 *101:38 0
16 *99:63 *100:41 0.000296824
17 *843:A *99:40 0.000346857
18 *895:CLK *99:8 5.3304e-05
19 *903:CLK *99:16 0
20 *914:RESET_B *99:14 0
21 *914:RESET_B *99:16 0
22 *48:8 *99:16 3.94608e-05
23 *51:47 *852:A 0.000723068
24 *51:47 *99:40 5.3304e-05
25 *51:47 *99:44 0.000111106
26 *63:16 *99:16 2.80201e-05
27 *69:22 *99:16 0.00232007
28 *74:16 *852:A 0.00014193
29 *74:32 *99:63 0.0010236
30 *84:91 *852:A 0.000240041
31 *84:106 *852:A 0.000483158
32 *84:106 *99:44 0.000102295
33 *85:59 *99:16 0
34 *85:99 *99:14 0.000380462
35 *85:99 *99:16 8.78031e-05
36 *85:108 *99:14 0.000236923
37 *85:123 *99:14 2.45092e-05
38 *85:123 *99:40 8.36198e-05
39 *86:80 *99:16 0
40 *90:61 *851:A 7.59979e-05
41 *90:71 *99:40 0.000113216
42 *93:33 *99:16 0
43 *94:40 *99:16 0
*RES
1 *895:Q *99:8 39.5743 
2 *99:8 *99:14 10.8957 
3 *99:14 *99:16 50.1493 
4 *99:16 *857:A 39.0979 
5 *99:14 *851:A 39.5743 
6 *99:8 *99:40 42.55 
7 *99:40 *99:44 16.5536 
8 *99:44 *852:A 49.2271 
9 *99:44 *99:63 40.085 
10 *99:63 *853:A1 23 
*END

*D_NET *100 0.0222918
*CONN
*I *857:B I *D sky130_fd_sc_hd__and4_1
*I *853:B1 I *D sky130_fd_sc_hd__a21oi_1
*I *852:B I *D sky130_fd_sc_hd__and3_1
*I *896:Q O *D sky130_fd_sc_hd__dfxtp_1
*CAP
1 *857:B 0.000326752
2 *853:B1 0
3 *852:B 0.000435575
4 *896:Q 0.000343475
5 *100:50 0.00163264
6 *100:41 0.000516434
7 *100:24 0.00228101
8 *100:20 0.00242034
9 *100:10 0.00274071
10 *852:B *913:CLK 0.000445578
11 *852:B *111:12 2.17004e-06
12 *852:B *111:18 0.000379573
13 *100:24 *109:8 0.000363919
14 *100:41 *111:18 0.000212414
15 *100:50 *103:69 2.90581e-05
16 *836:A *100:24 0.000364782
17 *857:A *857:B 5.68958e-05
18 *865:C *100:24 5.3304e-05
19 *878:B1_N *100:50 6.12392e-05
20 *881:A2 *100:50 0.000183574
21 *885:B *100:50 0.000545258
22 *26:10 *852:B 0.000379138
23 *26:10 *100:41 0.000221513
24 *32:10 *100:10 9.78317e-06
25 *32:10 *100:20 3.51198e-05
26 *32:10 *100:50 0.000653946
27 *36:14 *100:20 0.000301131
28 *39:12 *100:10 0.000442699
29 *49:10 *100:24 0.000137525
30 *53:18 *100:20 7.29729e-05
31 *53:18 *100:50 0.000252604
32 *57:27 *100:50 0.000577962
33 *69:10 *100:20 0.000593985
34 *69:18 *100:20 0.000169674
35 *74:32 *100:41 0.000935561
36 *78:10 *100:41 0.00101729
37 *81:38 *100:24 0.000193686
38 *81:53 *100:20 0.000967802
39 *81:53 *100:24 3.60429e-05
40 *85:12 *100:20 0.000219518
41 *85:88 *100:20 0.000628899
42 *90:10 *100:20 7.23889e-05
43 *90:18 *100:50 0
44 *94:40 *100:50 0.000257624
45 *97:12 *100:20 3.1898e-05
46 *97:12 *100:24 0.000109261
47 *97:25 *100:20 0.00028223
48 *99:63 *100:41 0.000296824
*RES
1 *896:Q *100:10 43.2304 
2 *100:10 *100:20 49.8311 
3 *100:20 *100:24 40.8721 
4 *100:24 *852:B 47.9843 
5 *100:24 *100:41 34.3057 
6 *100:41 *853:B1 23 
7 *100:10 *100:50 48.0704 
8 *100:50 *857:B 28.8621 
*END

*D_NET *101 0.0185939
*CONN
*I *857:C I *D sky130_fd_sc_hd__and4_1
*I *856:A I *D sky130_fd_sc_hd__and2_1
*I *855:A I *D sky130_fd_sc_hd__xor2_1
*I *897:Q O *D sky130_fd_sc_hd__dfxtp_1
*CAP
1 *857:C 0
2 *856:A 0.000368345
3 *855:A 0.000253508
4 *897:Q 0
5 *101:38 0.00107223
6 *101:10 0.0019805
7 *101:6 0.00452074
8 *101:4 0.00423433
9 *856:A *113:12 0.000285884
10 *855:B *855:A 0.000536989
11 *855:B *856:A 7.76364e-06
12 *855:B *101:10 9.48381e-06
13 *856:B *856:A 5.5792e-05
14 *897:CLK *101:6 0.00012012
15 *22:10 *856:A 0.000156379
16 *22:10 *101:10 0.00165462
17 *26:16 *101:6 0.000141535
18 *31:10 *101:10 0
19 *37:16 *101:10 0
20 *40:14 *101:6 0.00158682
21 *44:16 *101:6 0.000305143
22 *44:16 *101:38 0.000362133
23 *79:14 *101:10 0
24 *85:59 *101:38 0.000941623
25 *94:10 *101:10 0
26 *99:16 *101:38 0
*RES
1 *897:Q *101:4 23 
2 *101:4 *101:6 43.5 
3 *101:6 *101:10 47.19 
4 *101:10 *855:A 44.3386 
5 *101:10 *856:A 47.4871 
6 *101:4 *101:38 35.3 
7 *101:38 *857:C 38 
*END

*D_NET *102 0.0169601
*CONN
*I *857:D I *D sky130_fd_sc_hd__and4_1
*I *859:A1 I *D sky130_fd_sc_hd__o21ba_1
*I *898:Q O *D sky130_fd_sc_hd__dfxtp_1
*CAP
1 *857:D 0
2 *859:A1 0.000316114
3 *898:Q 0.000430196
4 *102:39 0.00209923
5 *102:31 0.00406186
6 *102:29 0.00201133
7 *102:16 0.00128632
8 *102:8 0.0013517
9 *102:16 *111:18 0
10 *873:A2 *102:31 0
11 *21:24 *102:31 0.000251556
12 *25:10 *102:16 0.000684358
13 *39:8 *102:31 0.000189749
14 *42:14 *102:16 0
15 *42:14 *102:31 0.000525577
16 *51:70 *102:8 4.67488e-05
17 *51:70 *102:16 0
18 *52:8 *102:31 0
19 *54:8 *102:16 0
20 *56:12 *102:31 0
21 *57:8 *102:31 0
22 *57:14 *102:31 0
23 *74:26 *102:16 0.000713211
24 *74:93 *102:31 0
25 *78:16 *102:16 0.00167466
26 *78:16 *102:29 5.82853e-05
27 *79:14 *859:A1 5.5792e-05
28 *80:8 *102:39 5.74393e-05
29 *80:22 *102:31 0.000111852
30 *89:54 *102:16 9.60606e-05
31 *90:41 *102:31 0
32 *98:8 *859:A1 0.000806489
33 *98:8 *102:29 0.000131563
*RES
1 *898:Q *102:8 43.3857 
2 *102:8 *102:16 46.1957 
3 *102:16 *859:A1 32.2179 
4 *102:16 *102:29 16.5743 
5 *102:29 *102:31 37.4721 
6 *102:31 *102:39 49.6136 
7 *102:39 *857:D 23 
*END

*D_NET *103 0.0194718
*CONN
*I *860:A I *D sky130_fd_sc_hd__xor2_1
*I *861:A1 I *D sky130_fd_sc_hd__a21oi_1
*I *865:A I *D sky130_fd_sc_hd__and4_1
*I *862:A I *D sky130_fd_sc_hd__and3_1
*I *866:A I *D sky130_fd_sc_hd__and4_1
*I *899:Q O *D sky130_fd_sc_hd__dfxtp_1
*CAP
1 *860:A 0
2 *861:A1 0.000299361
3 *865:A 0
4 *862:A 0.00027323
5 *866:A 0
6 *899:Q 4.78799e-05
7 *103:82 0.000483994
8 *103:69 0.000787136
9 *103:52 0.000805681
10 *103:31 0.00147245
11 *103:27 0.000999379
12 *103:20 0.000589489
13 *103:16 0.00137548
14 *103:8 0.000467944
15 *861:A1 *825:B1_N 0.000270221
16 *861:A1 *861:B1 0.000523451
17 *861:A1 *914:CLK 0.000101506
18 *861:A1 *104:12 0.000615131
19 *861:A1 *115:51 0.0001296
20 *862:A *108:49 0.0002496
21 *103:20 *866:B 2.193e-05
22 *103:27 *866:B 0.000112344
23 *103:27 *118:6 5.56356e-05
24 *103:27 *118:12 9.41704e-05
25 *103:31 *104:25 0
26 *103:31 *118:44 0.00059415
27 *103:52 *104:33 0.000342748
28 *103:52 *118:44 0.000834336
29 *103:69 *866:B 0.000153006
30 *103:69 *104:12 0.000183061
31 *103:69 *118:6 4.44329e-05
32 *103:82 *110:12 0
33 *103:82 *113:8 9.64943e-05
34 *824:A *862:A 0.000442508
35 *862:C *862:A 5.31999e-05
36 *891:CLK *103:16 0.000437979
37 *23:18 *861:A1 8.8786e-05
38 *38:8 *103:52 0
39 *40:10 *103:8 8.81493e-05
40 *48:16 *862:A 0.00018118
41 *51:24 *103:16 3.673e-05
42 *51:24 *103:20 0.00136334
43 *51:24 *103:82 0.000420428
44 *51:47 *103:82 0.000847209
45 *53:18 *103:69 6.43792e-05
46 *81:34 *103:82 9.64943e-05
47 *84:16 *103:8 0
48 *84:91 *103:82 0.000587735
49 *86:8 *103:16 9.64943e-05
50 *86:27 *103:16 0.000272581
51 *87:20 *103:52 1.16455e-05
52 *87:35 *103:20 9.91548e-05
53 *88:10 *103:16 0.000196148
54 *88:14 *103:20 0.000671864
55 *89:8 *103:16 5.50106e-05
56 *89:21 *103:16 0.000686926
57 *89:21 *103:82 0.000380484
58 *89:40 *103:82 0.000240459
59 *90:65 *103:52 0
60 *100:50 *103:69 2.90581e-05
*RES
1 *899:Q *103:8 39.2014 
2 *103:8 *103:16 44.21 
3 *103:16 *103:20 31.82 
4 *103:20 *866:A 23 
5 *103:20 *103:27 2.52714 
6 *103:27 *103:31 23.2443 
7 *103:31 *862:A 45.7886 
8 *103:31 *103:52 33.0836 
9 *103:52 *865:A 23 
10 *103:27 *103:69 40.6886 
11 *103:69 *861:A1 35.5321 
12 *103:16 *103:82 33.1457 
13 *103:82 *860:A 23 
*END

*D_NET *104 0.0133483
*CONN
*I *861:B1 I *D sky130_fd_sc_hd__a21oi_1
*I *862:B I *D sky130_fd_sc_hd__and3_1
*I *865:B I *D sky130_fd_sc_hd__and4_1
*I *866:B I *D sky130_fd_sc_hd__and4_1
*I *900:Q O *D sky130_fd_sc_hd__dfxtp_1
*CAP
1 *861:B1 0.000472503
2 *862:B 0.000246884
3 *865:B 0
4 *866:B 0.000477229
5 *900:Q 0.000376776
6 *104:33 0.000630536
7 *104:25 0.00129443
8 *104:12 0.00183926
9 *104:10 0.00141752
10 *104:8 0.000376776
11 *861:B1 *115:51 2.83509e-05
12 *862:B *108:49 0.000296771
13 *104:8 *116:38 0
14 *104:25 *113:23 0.000619965
15 *104:33 *108:49 0.000358906
16 *104:33 *118:44 0.000870354
17 *861:A1 *861:B1 0.000523451
18 *861:A1 *104:12 0.000615131
19 *20:12 *104:8 0.000673327
20 *55:16 *104:8 0.000222104
21 *87:20 *104:33 0.00114166
22 *87:35 *866:B 5.3304e-05
23 *103:20 *866:B 2.193e-05
24 *103:27 *866:B 0.000112344
25 *103:31 *104:25 0
26 *103:52 *104:33 0.000342748
27 *103:69 *866:B 0.000153006
28 *103:69 *104:12 0.000183061
*RES
1 *900:Q *104:8 48.3571 
2 *104:8 *104:10 15 
3 *104:10 *104:12 13.0086 
4 *104:12 *866:B 29.3386 
5 *104:12 *104:25 38.5964 
6 *104:25 *104:33 49.2436 
7 *104:33 *865:B 23 
8 *104:25 *862:B 26.48 
9 *104:10 *861:B1 30.3121 
*END

*D_NET *105 0.0237284
*CONN
*I *890:A I *D sky130_fd_sc_hd__inv_2
*I *888:A I *D sky130_fd_sc_hd__inv_2
*I *887:A I *D sky130_fd_sc_hd__inv_2
*I *889:A I *D sky130_fd_sc_hd__inv_2
*I *921:X O *D sky130_fd_sc_hd__buf_2
*CAP
1 *890:A 3.42668e-05
2 *888:A 4.07844e-05
3 *887:A 0.000181079
4 *889:A 0
5 *921:X 0.000552257
6 *105:70 0.00356151
7 *105:49 0.00432842
8 *105:45 0.000899371
9 *105:33 0.000653337
10 *105:23 0.00306717
11 *105:12 0.00285206
12 *105:8 0.000683467
13 *888:A *114:34 5.76359e-05
14 *105:45 *835:A 4.56533e-05
15 *105:70 *116:10 0.00019273
16 *105:70 *116:29 0
17 *105:70 *116:38 0
18 *848:A2 *105:49 0.000275734
19 *905:CLK *105:70 0.000133915
20 *909:CLK *105:23 0.000125378
21 *909:D *105:23 3.32987e-05
22 *34:10 *105:70 0
23 *45:8 *105:70 3.41301e-05
24 *46:8 *105:12 8.5521e-05
25 *49:10 *105:33 0.000323081
26 *59:12 *105:70 0
27 *70:18 *887:A 5.5792e-05
28 *74:12 *105:49 0.000967481
29 *74:44 *105:49 5.46706e-05
30 *74:61 *105:33 0.000154397
31 *74:61 *105:49 0.00044616
32 *76:16 *890:A 2.64616e-05
33 *76:16 *105:33 2.43944e-05
34 *81:68 *105:70 0.000197534
35 *82:14 *105:70 0.00119878
36 *85:23 *105:70 0.00011035
37 *86:52 *887:A 0.000162179
38 *86:52 *105:70 0.000213059
39 *86:67 *887:A 2.05503e-05
40 *86:67 *105:49 7.11472e-06
41 *87:10 *105:45 0.00017515
42 *89:46 *105:23 0.000336263
43 *89:54 *105:23 0.000356938
44 *95:10 *105:45 0.00017515
45 *96:22 *105:49 0.000807228
46 *96:32 *887:A 5.3304e-05
47 *98:18 *887:A 2.46922e-05
*RES
1 *921:X *105:8 48.3571 
2 *105:8 *105:12 18.0036 
3 *105:12 *889:A 23 
4 *105:12 *105:23 42.9407 
5 *105:23 *105:33 37.395 
6 *105:33 *105:45 34.3305 
7 *105:45 *105:49 27.865 
8 *105:49 *887:A 47.342 
9 *105:49 *105:70 44.2687 
10 *105:70 *888:A 39.0979 
11 *105:33 *890:A 23.6214 
*END

*D_NET *106 0.000903045
*CONN
*I *840:A I *D sky130_fd_sc_hd__inv_2
*I *920:X O *D sky130_fd_sc_hd__dlygate4sd3_1
*CAP
1 *840:A 0
2 *920:X 0.000110586
3 *106:6 0.000110586
4 *22:6 *106:6 0.000241703
5 *86:34 *106:6 0.000440169
*RES
1 *920:X *106:6 27.9093 
2 *106:6 *840:A 23 
*END

*D_NET *107 0.00768555
*CONN
*I *922:A I *D sky130_fd_sc_hd__buf_1
*I *834:Y O *D sky130_fd_sc_hd__o31ai_1
*CAP
1 *922:A 0.000826757
2 *834:Y 0
3 *107:10 0.00152248
4 *107:6 0.000695722
5 *922:A *116:53 0.00123231
6 *922:A *116:64 0.00112235
7 *107:10 *114:8 0.000352683
8 *107:10 *116:51 0.00163187
9 *69:8 *922:A 0.000301374
*RES
1 *834:Y *107:6 38 
2 *107:6 *107:10 36.6257 
3 *107:10 *922:A 49.9907 
*END

*D_NET *108 0.0165218
*CONN
*I *825:A2 I *D sky130_fd_sc_hd__o21ba_1
*I *923:A I *D sky130_fd_sc_hd__buf_1
*I *829:A I *D sky130_fd_sc_hd__and3_1
*I *832:B1 I *D sky130_fd_sc_hd__o21ai_2
*I *824:X O *D sky130_fd_sc_hd__clkbuf_2
*CAP
1 *825:A2 0
2 *923:A 0
3 *829:A 0
4 *832:B1 0.00036353
5 *824:X 0
6 *108:49 0.00120065
7 *108:34 0.00144584
8 *108:32 0.00144584
9 *108:12 0.0020072
10 *108:6 0.00215038
11 *108:4 0.00170737
12 *108:34 *109:14 0.00143984
13 *108:34 *115:85 0.000169674
14 *108:34 *115:100 0
15 *108:49 *114:16 0
16 *108:49 *114:18 0.000391083
17 *824:A *108:49 6.64565e-05
18 *862:A *108:49 0.0002496
19 *862:B *108:49 0.000296771
20 *862:C *108:49 1.61361e-05
21 *876:D *832:B1 0.000142678
22 *917:A *108:6 0.00037376
23 *917:A *108:12 5.41385e-05
24 *24:14 *108:12 0
25 *48:16 *108:49 0.000222953
26 *62:10 *108:49 0.000304215
27 *65:10 *832:B1 9.01032e-05
28 *65:10 *108:12 6.07611e-06
29 *67:8 *832:B1 6.17437e-06
30 *67:10 *832:B1 6.9112e-05
31 *67:10 *108:12 9.60779e-05
32 *67:21 *108:12 0.000543318
33 *67:21 *108:34 0.00107223
34 *70:22 *108:34 0
35 *81:68 *108:49 8.27116e-05
36 *83:23 *108:6 0.000135287
37 *83:23 *108:49 1.36806e-05
38 *88:10 *108:12 0
39 *88:21 *108:12 0
40 *88:21 *108:34 0
41 *89:14 *832:B1 0
42 *89:14 *108:12 0
43 *89:44 *108:34 0
44 *104:33 *108:49 0.000358906
*RES
1 *824:X *108:4 23 
2 *108:4 *108:6 10.6264 
3 *108:6 *108:12 46.5271 
4 *108:12 *832:B1 45.7057 
5 *108:12 *829:A 38 
6 *108:6 *108:32 15 
7 *108:32 *108:34 37.12 
8 *108:34 *923:A 38 
9 *108:4 *108:49 40.665 
10 *108:49 *825:A2 38 
*END

*D_NET *109 0.00522686
*CONN
*I *924:A I *D sky130_fd_sc_hd__buf_1
*I *836:X O *D sky130_fd_sc_hd__clkbuf_1
*CAP
1 *924:A 0
2 *836:X 0.000498486
3 *109:14 0.00082944
4 *109:8 0.00132793
5 *109:14 *826:A 0.000276874
6 *109:14 *116:64 0.000490373
7 *88:21 *109:14 0
8 *89:44 *109:14 0
9 *100:24 *109:8 0.000363919
10 *108:34 *109:14 0.00143984
*RES
1 *836:X *109:8 45.2914 
2 *109:8 *109:14 39.5464 
3 *109:14 *924:A 23 
*END

*D_NET *110 0.0120898
*CONN
*I *925:A I *D sky130_fd_sc_hd__buf_1
*I *915:X O *D sky130_fd_sc_hd__buf_1
*CAP
1 *925:A 4.14896e-05
2 *915:X 0.00205324
3 *110:18 0.00161418
4 *110:12 0.00235245
5 *110:6 0.002833
6 *925:A *826:A 0.000103405
7 *925:A *116:64 0.000188927
8 *110:18 *111:18 0
9 *110:18 *113:8 9.41704e-05
10 *51:60 *110:18 0
11 *53:8 *110:12 4.11274e-05
12 *58:33 *110:6 0.000268015
13 *71:10 *110:12 0.0014323
14 *71:10 *110:18 0.000970979
15 *81:23 *110:18 9.64943e-05
16 *84:91 *110:12 0
17 *84:106 *110:18 0
18 *89:40 *110:12 0
19 *103:82 *110:12 0
*RES
1 *915:X *110:6 48.3957 
2 *110:6 *110:12 49.1607 
3 *110:12 *110:18 44.4143 
4 *110:18 *925:A 40.0507 
*END

*D_NET *111 0.0125201
*CONN
*I *926:A I *D sky130_fd_sc_hd__buf_1
*I *839:Y O *D sky130_fd_sc_hd__o21ai_1
*CAP
1 *926:A 0
2 *839:Y 0.000556726
3 *111:18 0.000978116
4 *111:12 0.00202492
5 *111:8 0.00160353
6 *111:18 *826:A 2.93747e-05
7 *111:18 *116:64 5.50049e-05
8 *852:B *111:12 2.17004e-06
9 *852:B *111:18 0.000379573
10 *21:12 *111:18 0
11 *21:24 *111:12 0.000397632
12 *26:10 *111:12 0.000248583
13 *26:10 *111:18 7.80621e-05
14 *26:16 *111:12 0.00183568
15 *28:6 *111:8 0.000794937
16 *51:60 *111:18 0.00042646
17 *51:70 *111:18 0.000136486
18 *54:8 *111:12 0.000491333
19 *54:8 *111:18 4.29668e-05
20 *57:8 *111:12 0.000301409
21 *57:62 *111:12 0.000502594
22 *72:12 *111:12 0.000933165
23 *72:12 *111:18 0.000341925
24 *80:39 *111:12 6.07929e-05
25 *89:54 *111:18 0
26 *90:71 *111:18 8.62876e-05
27 *100:41 *111:18 0.000212414
28 *102:16 *111:18 0
29 *110:18 *111:18 0
*RES
1 *839:Y *111:8 46.7207 
2 *111:8 *111:12 37.4411 
3 *111:12 *111:18 40.3646 
4 *111:18 *926:A 23 
*END

*D_NET *112 0.0127094
*CONN
*I *927:A I *D sky130_fd_sc_hd__buf_1
*I *833:Y O *D sky130_fd_sc_hd__inv_2
*CAP
1 *927:A 0
2 *833:Y 0
3 *112:10 0.000978233
4 *112:6 0.00458865
5 *112:4 0.00361042
6 *112:6 *117:71 1.40958e-05
7 *112:6 *118:61 0.000110155
8 *833:A *112:6 0.000254447
9 *25:10 *112:10 0
10 *35:14 *112:6 1.64354e-05
11 *41:10 *112:10 0.000986994
12 *67:29 *112:6 0.00214995
13 *84:114 *112:10 0
*RES
1 *833:Y *112:4 23 
2 *112:4 *112:6 60.6514 
3 *112:6 *112:10 37.33 
4 *112:10 *927:A 38 
*END

*D_NET *113 0.0168088
*CONN
*I *915:A I *D sky130_fd_sc_hd__buf_1
*I *928:A I *D sky130_fd_sc_hd__buf_1
*I *838:X O *D sky130_fd_sc_hd__a211o_1
*CAP
1 *915:A 2.40482e-05
2 *928:A 0
3 *838:X 0.000831441
4 *113:23 0.000824393
5 *113:12 0.00139318
6 *113:8 0.00408646
7 *113:6 0.00432507
8 *838:A2 *113:6 0.000699315
9 *855:B *113:8 2.93747e-05
10 *855:B *113:12 0.000111852
11 *856:A *113:12 0.000285884
12 *856:B *113:12 0.000474058
13 *914:RESET_B *113:23 0.00128601
14 *40:6 *113:8 0.000128527
15 *58:33 *915:A 5.8118e-05
16 *81:23 *113:8 0.000816827
17 *81:34 *113:8 0.000623667
18 *103:82 *113:8 9.64943e-05
19 *104:25 *113:23 0.000619965
20 *110:18 *113:8 9.41704e-05
*RES
1 *838:X *113:6 37.4379 
2 *113:6 *113:8 45.8821 
3 *113:8 *113:12 42.9643 
4 *113:12 *928:A 38 
5 *113:6 *113:23 35.5693 
6 *113:23 *915:A 38.6214 
*END

*D_NET *114 0.0226077
*CONN
*I *913:CLK I *D sky130_fd_sc_hd__dfrtp_4
*I *914:CLK I *D sky130_fd_sc_hd__dfrtp_4
*I *911:CLK I *D sky130_fd_sc_hd__dfrtp_4
*I *912:CLK I *D sky130_fd_sc_hd__dfrtp_4
*I *886:A I *D sky130_fd_sc_hd__xor2_1
*I *910:Q O *D sky130_fd_sc_hd__dfxtp_2
*CAP
1 *913:CLK 0.00108297
2 *914:CLK 4.7978e-05
3 *911:CLK 2.44422e-05
4 *912:CLK 0
5 *886:A 0
6 *910:Q 0
7 *114:70 0.00404447
8 *114:66 0.0029615
9 *114:34 0.00119319
10 *114:22 0.00154925
11 *114:20 0.000993304
12 *114:18 0.000931999
13 *114:16 0.00101321
14 *114:8 0.00131403
15 *114:6 0.000572029
16 *913:CLK *117:14 0.00112686
17 *114:8 *116:38 2.5415e-05
18 *114:8 *116:51 3.09958e-05
19 *114:16 *116:38 0.000380043
20 *114:34 *118:29 0.000546449
21 *114:70 *117:14 0.000238847
22 *831:B *114:22 9.15707e-05
23 *831:B *114:34 0.000192032
24 *847:A *114:16 0.00041079
25 *851:A *114:70 5.01469e-05
26 *851:B *114:70 0.000213125
27 *852:B *913:CLK 0.000445578
28 *861:A1 *914:CLK 0.000101506
29 *888:A *114:34 5.76359e-05
30 *911:RESET_B *911:CLK 5.41385e-05
31 *23:18 *914:CLK 0.000187363
32 *23:18 *114:20 0.000301481
33 *23:18 *114:22 0.000138198
34 *32:10 *114:20 0
35 *34:8 *114:34 2.49231e-05
36 *64:8 *114:22 7.70737e-05
37 *66:12 *114:20 0.000314768
38 *66:12 *114:22 0.000299014
39 *66:12 *114:34 2.81425e-05
40 *70:33 *114:16 0.000413284
41 *74:16 *114:70 7.91876e-05
42 *85:40 *911:CLK 9.84851e-05
43 *90:61 *114:70 1.86083e-05
44 *91:14 *114:34 0.000189848
45 *107:10 *114:8 0.000352683
46 *108:49 *114:16 0
47 *108:49 *114:18 0.000391083
*RES
1 *910:Q *114:6 38 
2 *114:6 *114:8 12.47 
3 *114:8 *114:16 49.72 
4 *114:16 *114:18 5.77929 
5 *114:18 *114:20 14.2307 
6 *114:20 *114:22 8.59643 
7 *114:22 *114:34 35.6729 
8 *114:34 *886:A 23 
9 *114:22 *912:CLK 38 
10 *114:20 *911:CLK 39.0979 
11 *114:18 *914:CLK 40.0507 
12 *114:8 *114:66 15 
13 *114:66 *114:70 37.3271 
14 *114:70 *913:CLK 46.5107 
*END

*D_NET *115 0.0341663
*CONN
*I *823:B I *D sky130_fd_sc_hd__or3_1
*I *835:C I *D sky130_fd_sc_hd__or3_1
*I *826:A I *D sky130_fd_sc_hd__xor2_1
*I *838:A1 I *D sky130_fd_sc_hd__a211o_1
*I *825:B1_N I *D sky130_fd_sc_hd__o21ba_1
*I *827:B I *D sky130_fd_sc_hd__nand3_1
*I *839:A1 I *D sky130_fd_sc_hd__o21ai_1
*I *828:A1 I *D sky130_fd_sc_hd__a21o_1
*I *911:Q O *D sky130_fd_sc_hd__dfrtp_4
*CAP
1 *823:B 0.000417446
2 *835:C 0
3 *826:A 0.000914278
4 *838:A1 0
5 *825:B1_N 0.000238347
6 *827:B 0
7 *839:A1 0
8 *828:A1 0.000249227
9 *911:Q 0
10 *115:100 0.000961646
11 *115:85 0.001101
12 *115:77 0.00262733
13 *115:75 0.00256859
14 *115:64 0.00116438
15 *115:51 0.00140762
16 *115:35 0.000378022
17 *115:18 0.00117946
18 *115:14 0.00106582
19 *115:6 0.00119069
20 *823:B *118:89 0.00022296
21 *826:A *116:64 0.000355108
22 *828:A1 *832:A2 1.0092e-05
23 *828:A1 *117:18 0.000393914
24 *115:14 *827:C 0.00043586
25 *115:14 *116:14 0.000355023
26 *115:18 *117:42 0.00216003
27 *115:35 *117:16 0.000179857
28 *115:35 *117:18 2.33661e-05
29 *115:64 *116:38 0.00129532
30 *115:75 *116:38 0.000345555
31 *115:75 *116:51 0.00156965
32 *115:75 *118:89 0.000430242
33 *839:A2 *115:35 0.000136697
34 *839:B1 *115:35 0.000487147
35 *861:A1 *825:B1_N 0.000270221
36 *861:A1 *115:51 0.0001296
37 *861:B1 *115:51 2.83509e-05
38 *905:D *115:14 0.000128979
39 *905:D *115:51 6.63594e-05
40 *925:A *826:A 0.000103405
41 *17:8 *826:A 1.32939e-05
42 *20:8 *825:B1_N 5.5792e-05
43 *23:18 *825:B1_N 5.5792e-05
44 *28:6 *115:35 1.46205e-05
45 *33:8 *115:100 0
46 *34:10 *115:14 0.000402593
47 *34:10 *115:51 0.00108317
48 *36:14 *115:64 0.000941506
49 *36:14 *115:75 0.000583895
50 *58:20 *828:A1 0.000101483
51 *58:20 *115:35 4.97862e-05
52 *62:6 *823:B 3.22118e-05
53 *62:6 *115:77 0.000388848
54 *70:22 *115:100 0.000613541
55 *73:14 *115:51 0.000433017
56 *74:61 *115:77 0.000148647
57 *75:12 *115:77 0.000362832
58 *76:8 *115:77 7.95355e-05
59 *76:24 *115:14 0.00103239
60 *76:24 *115:18 1.56665e-05
61 *90:24 *115:35 0.000784279
62 *94:21 *115:18 0.00190595
63 *108:34 *115:85 0.000169674
64 *108:34 *115:100 0
65 *109:14 *826:A 0.000276874
66 *111:18 *826:A 2.93747e-05
*RES
1 *911:Q *115:6 38 
2 *115:6 *115:14 32.5036 
3 *115:14 *115:18 39.4429 
4 *115:18 *828:A1 43.4271 
5 *115:18 *115:35 27.5321 
6 *115:35 *839:A1 23 
7 *115:14 *827:B 23 
8 *115:6 *115:51 34.9686 
9 *115:51 *825:B1_N 28.8829 
10 *115:51 *115:64 32.4 
11 *115:64 *838:A1 38 
12 *115:64 *115:75 40.4993 
13 *115:75 *115:77 31.1129 
14 *115:77 *115:85 33.8321 
15 *115:85 *826:A 41.6221 
16 *115:77 *115:100 49.865 
17 *115:100 *835:C 23 
18 *115:75 *823:B 29.7114 
*END

*D_NET *116 0.0285025
*CONN
*I *823:C I *D sky130_fd_sc_hd__or3_1
*I *826:B I *D sky130_fd_sc_hd__xor2_1
*I *837:A I *D sky130_fd_sc_hd__inv_2
*I *834:A3 I *D sky130_fd_sc_hd__o31ai_1
*I *828:A2 I *D sky130_fd_sc_hd__a21o_1
*I *827:C I *D sky130_fd_sc_hd__nand3_1
*I *912:Q O *D sky130_fd_sc_hd__dfrtp_4
*CAP
1 *823:C 0
2 *826:B 0
3 *837:A 0
4 *834:A3 4.99221e-05
5 *828:A2 5.28824e-05
6 *827:C 0.000252249
7 *912:Q 0.000104603
8 *116:77 0.00050771
9 *116:64 0.00146337
10 *116:53 0.00193411
11 *116:51 0.00158839
12 *116:38 0.00230134
13 *116:29 0.00235482
14 *116:23 0.00394341
15 *116:14 0.000430536
16 *116:10 0.000282891
17 *834:A3 *117:64 5.3304e-05
18 *116:29 *118:29 0.000460276
19 *116:77 *118:89 0
20 an[3] *116:77 3.22879e-05
21 an[4] *116:53 3.22879e-05
22 an[5] *116:53 3.22879e-05
23 an[6] *116:64 5.79559e-05
24 an[7] *116:64 5.67058e-05
25 seg[0] *116:64 5.67058e-05
26 seg[1] *116:64 5.67058e-05
27 seg[3] *116:64 5.67058e-05
28 *826:A *116:64 0.000355108
29 *831:B *116:29 4.69521e-05
30 *884:A *116:29 0.000175942
31 *905:CLK *116:10 0.000220835
32 *912:RESET_B *116:10 2.19403e-05
33 *922:A *116:53 0.00123231
34 *922:A *116:64 0.00112235
35 *925:A *116:64 0.000188927
36 *15:10 *116:64 0.000102389
37 *17:8 *116:64 0.000230604
38 *23:8 *116:29 0.000401833
39 *27:8 *116:38 3.98813e-05
40 *45:8 *116:10 1.1926e-05
41 *55:16 *116:38 0
42 *58:20 *116:29 0.0001296
43 *59:12 *116:38 0.000990198
44 *91:6 *116:10 5.45541e-05
45 *91:14 *116:29 2.03764e-06
46 *93:44 *116:29 9.55892e-05
47 *93:44 *116:38 8.05976e-05
48 *96:40 *116:29 2.96073e-05
49 *104:8 *116:38 0
50 *105:70 *116:10 0.00019273
51 *105:70 *116:29 0
52 *105:70 *116:38 0
53 *107:10 *116:51 0.00163187
54 *109:14 *116:64 0.000490373
55 *111:18 *116:64 5.50049e-05
56 *114:8 *116:38 2.5415e-05
57 *114:8 *116:51 3.09958e-05
58 *114:16 *116:38 0.000380043
59 *115:14 *827:C 0.00043586
60 *115:14 *116:14 0.000355023
61 *115:64 *116:38 0.00129532
62 *115:75 *116:38 0.000345555
63 *115:75 *116:51 0.00156965
*RES
1 *912:Q *116:10 41.7079 
2 *116:10 *116:14 18.9564 
3 *116:14 *827:C 27.9093 
4 *116:14 *116:23 15 
5 *116:23 *116:29 49.0543 
6 *116:29 *828:A2 24.2014 
7 *116:23 *116:38 42.05 
8 *116:38 *834:A3 38.6214 
9 *116:38 *116:51 38.7386 
10 *116:51 *116:53 13.9614 
11 *116:53 *837:A 23 
12 *116:53 *116:64 36.7471 
13 *116:64 *826:B 23 
14 *116:51 *116:77 39.1764 
15 *116:77 *823:C 23 
*END

*D_NET *117 0.0306092
*CONN
*I *822:A I *D sky130_fd_sc_hd__inv_2
*I *838:C1 I *D sky130_fd_sc_hd__a211o_1
*I *834:A2 I *D sky130_fd_sc_hd__o31ai_1
*I *835:B I *D sky130_fd_sc_hd__or3_1
*I *827:A I *D sky130_fd_sc_hd__nand3_1
*I *828:B1 I *D sky130_fd_sc_hd__a21o_1
*I *832:A2 I *D sky130_fd_sc_hd__o21ai_2
*I *913:Q O *D sky130_fd_sc_hd__dfrtp_4
*CAP
1 *822:A 2.80909e-05
2 *838:C1 0
3 *834:A2 0
4 *835:B 0
5 *827:A 0
6 *828:B1 2.7578e-05
7 *832:A2 0.000159773
8 *913:Q 0.000900769
9 *117:90 0.00138291
10 *117:79 0.000415084
11 *117:71 0.00202536
12 *117:64 0.00219707
13 *117:53 0.00206604
14 *117:42 0.000497409
15 *117:18 0.000396801
16 *117:16 0.00213122
17 *117:14 0.00241596
18 *117:10 0.00176794
19 *828:A1 *832:A2 1.0092e-05
20 *828:A1 *117:18 0.000393914
21 *833:A *117:64 0.000157574
22 *833:A *117:71 0.000336296
23 *834:A3 *117:64 5.3304e-05
24 *852:A *117:14 0.000140927
25 *876:D *832:A2 5.58003e-05
26 *913:CLK *117:14 0.00112686
27 *12:23 *117:16 9.85586e-06
28 *28:10 *117:16 0.000796637
29 *34:10 *117:79 0.000193712
30 *57:23 *117:42 0.000474339
31 *58:20 *117:16 0
32 *62:6 *822:A 5.56356e-05
33 *63:10 *117:79 0.000128534
34 *63:10 *117:90 0
35 *67:10 *832:A2 4.70578e-05
36 *67:10 *117:16 5.12411e-05
37 *67:10 *117:18 0.000114896
38 *67:21 *117:16 0.000826991
39 *67:21 *117:53 4.98543e-05
40 *67:29 *117:64 0.00105061
41 *70:22 *117:16 0.0010181
42 *70:22 *117:53 0.000164282
43 *74:16 *117:14 0.000392947
44 *74:26 *117:14 0.000968481
45 *76:24 *117:42 0.00134352
46 *77:10 *117:14 0.000478806
47 *91:20 *832:A2 3.88725e-05
48 *94:21 *117:42 2.02872e-05
49 *96:8 *117:53 5.3304e-05
50 *96:8 *117:64 0.000695012
51 *96:40 *828:B1 5.5792e-05
52 *97:27 *117:90 0.00027743
53 *112:6 *117:71 1.40958e-05
54 *114:70 *117:14 0.000238847
55 *115:18 *117:42 0.00216003
56 *115:35 *117:16 0.000179857
57 *115:35 *117:18 2.33661e-05
*RES
1 *913:Q *117:10 34.9729 
2 *117:10 *117:14 45.6364 
3 *117:14 *117:16 39.585 
4 *117:16 *117:18 5.77929 
5 *117:18 *832:A2 41.2314 
6 *117:18 *828:B1 38.6214 
7 *117:16 *117:42 39.4429 
8 *117:42 *827:A 23 
9 *117:14 *117:53 17.8793 
10 *117:53 *835:B 23 
11 *117:53 *117:64 31.9932 
12 *117:64 *834:A2 23 
13 *117:64 *117:71 5.1475 
14 *117:71 *117:79 39.5079 
15 *117:79 *838:C1 23 
16 *117:71 *117:90 40.1264 
17 *117:90 *822:A 38.6214 
*END

*D_NET *118 0.0257098
*CONN
*I *823:A I *D sky130_fd_sc_hd__or3_1
*I *834:A1 I *D sky130_fd_sc_hd__o31ai_1
*I *838:B1 I *D sky130_fd_sc_hd__a211o_1
*I *835:A I *D sky130_fd_sc_hd__or3_1
*I *831:A I *D sky130_fd_sc_hd__xnor2_1
*I *832:A1 I *D sky130_fd_sc_hd__o21ai_2
*I *914:Q O *D sky130_fd_sc_hd__dfrtp_4
*CAP
1 *823:A 0
2 *834:A1 0
3 *838:B1 0.00027377
4 *835:A 0.000914646
5 *831:A 0
6 *832:A1 0
7 *914:Q 3.78457e-05
8 *118:89 0.000948003
9 *118:61 0.00326423
10 *118:44 0.00392678
11 *118:29 0.000619144
12 *118:20 0.00079983
13 *118:12 0.00230172
14 *118:6 0.00189027
15 *823:B *118:89 0.00022296
16 *831:B *118:29 0.000717119
17 *867:A *118:12 0.000418626
18 *867:B *118:12 1.84329e-05
19 *876:D *118:20 2.19667e-05
20 *34:10 *838:B1 0
21 *34:10 *118:89 0
22 *36:14 *838:B1 0.000218925
23 *36:14 *118:89 6.85843e-05
24 *51:8 *118:12 5.20305e-05
25 *62:6 *118:89 0.000227417
26 *67:29 *118:61 0.000110155
27 *70:22 *835:A 2.46922e-05
28 *74:70 *118:12 0.000783519
29 *74:70 *118:44 0.000362154
30 *80:10 *118:12 0.000123941
31 *80:10 *118:20 6.49895e-05
32 *83:23 *118:44 0.000110379
33 *86:52 *118:44 2.26497e-05
34 *87:20 *118:44 8.45062e-05
35 *91:14 *118:29 0.000702472
36 *92:23 *118:20 0.000305505
37 *95:10 *118:12 0.00184102
38 *95:10 *118:20 1.0092e-05
39 *95:16 *118:20 0.000135616
40 *103:27 *118:6 5.56356e-05
41 *103:27 *118:12 9.41704e-05
42 *103:31 *118:44 0.00059415
43 *103:52 *118:44 0.000834336
44 *103:69 *118:6 4.44329e-05
45 *104:33 *118:44 0.000870354
46 *105:45 *835:A 4.56533e-05
47 *112:6 *118:61 0.000110155
48 *114:34 *118:29 0.000546449
49 *115:75 *118:89 0.000430242
50 *116:29 *118:29 0.000460276
51 *116:77 *118:89 0
*RES
1 *914:Q *118:6 24.0979 
2 *118:6 *118:12 41.5971 
3 *118:12 *118:20 28.7129 
4 *118:20 *832:A1 23 
5 *118:12 *118:29 38.0136 
6 *118:29 *831:A 23 
7 *118:6 *118:44 43.4785 
8 *118:44 *835:A 48.2232 
9 *118:44 *118:61 11.8771 
10 *118:61 *838:B1 44.4007 
11 *118:61 *834:A1 38 
12 *118:61 *118:89 39.2979 
13 *118:89 *823:A 23 
*END
