*SPEF "ieee 1481-1999"
*DESIGN "TopZeroToFive"
*DATE "10:40:30 Sunday May 25, 2025"
*VENDOR "The OpenROAD Project"
*PROGRAM "OpenROAD"
*VERSION "b16bda7e82721d10566ff7e2b68f1ff0be9f9e38"
*DESIGN_FLOW "NAME_SCOPE LOCAL" "PIN_CAP NONE"
*DIVIDER /
*DELIMITER :
*BUS_DELIMITER []
*T_UNIT 1 NS
*C_UNIT 1 PF
*R_UNIT 1 OHM
*L_UNIT 1 HENRY

*NAME_MAP
*3 net9
*4 net10
*5 net11
*6 net12
*7 net13
*8 net14
*9 net15
*10 net16
*11 btnC
*12 clk
*13 seg[0]
*14 seg[1]
*15 seg[2]
*16 seg[3]
*17 seg[4]
*18 seg[5]
*19 seg[6]
*20 _000_
*21 _001_
*22 _002_
*23 _003_
*24 _004_
*25 _005_
*26 _006_
*27 _007_
*28 _008_
*29 _009_
*30 _010_
*31 _011_
*32 _012_
*33 _013_
*34 _014_
*35 _015_
*36 _016_
*37 _017_
*38 _018_
*39 _019_
*40 _020_
*41 _021_
*42 _022_
*43 _023_
*44 _024_
*45 _025_
*46 _026_
*47 _027_
*48 _028_
*49 _029_
*50 _030_
*51 _031_
*52 _032_
*53 _033_
*54 _034_
*55 _035_
*56 _036_
*57 _037_
*58 _038_
*59 _039_
*60 _040_
*61 _041_
*62 _042_
*63 _043_
*64 _044_
*65 _045_
*66 _046_
*67 _047_
*68 _048_
*69 _049_
*70 _050_
*71 _051_
*72 _052_
*73 _053_
*74 _054_
*75 _055_
*76 _056_
*77 _057_
*78 _058_
*79 _059_
*80 _060_
*81 _061_
*82 _062_
*83 clknet_0_clk
*84 clknet_1_0__leaf_clk
*85 clknet_1_1__leaf_clk
*86 div_cntr\[0\]
*87 div_cntr\[10\]
*88 div_cntr\[11\]
*89 div_cntr\[12\]
*90 div_cntr\[13\]
*91 div_cntr\[14\]
*92 div_cntr\[15\]
*93 div_cntr\[16\]
*94 div_cntr\[17\]
*95 div_cntr\[18\]
*96 div_cntr\[1\]
*97 div_cntr\[2\]
*98 div_cntr\[3\]
*99 div_cntr\[4\]
*100 div_cntr\[5\]
*101 div_cntr\[6\]
*102 div_cntr\[7\]
*103 div_cntr\[8\]
*104 div_cntr\[9\]
*105 net1
*106 net17
*107 net2
*108 net3
*109 net4
*110 net5
*111 net6
*112 net7
*113 net8
*114 u_cnt\.clk
*115 u_cnt\.count\[0\]
*116 u_cnt\.count\[1\]
*117 u_cnt\.count\[2\]
*118 u_cnt\.count\[3\]
*119 ANTENNA_1
*120 ANTENNA_2
*121 FILLER_0_0_109
*122 FILLER_0_0_113
*123 FILLER_0_0_128
*124 FILLER_0_0_141
*125 FILLER_0_0_15
*126 FILLER_0_0_153
*127 FILLER_0_0_165
*128 FILLER_0_0_169
*129 FILLER_0_0_181
*130 FILLER_0_0_189
*131 FILLER_0_0_27
*132 FILLER_0_0_29
*133 FILLER_0_0_3
*134 FILLER_0_0_41
*135 FILLER_0_0_53
*136 FILLER_0_0_57
*137 FILLER_0_0_69
*138 FILLER_0_0_81
*139 FILLER_0_0_85
*140 FILLER_0_0_97
*141 FILLER_0_10_109
*142 FILLER_0_10_121
*143 FILLER_0_10_125
*144 FILLER_0_10_137
*145 FILLER_0_10_141
*146 FILLER_0_10_15
*147 FILLER_0_10_153
*148 FILLER_0_10_165
*149 FILLER_0_10_173
*150 FILLER_0_10_181
*151 FILLER_0_10_189
*152 FILLER_0_10_27
*153 FILLER_0_10_29
*154 FILLER_0_10_3
*155 FILLER_0_10_41
*156 FILLER_0_10_53
*157 FILLER_0_10_65
*158 FILLER_0_10_77
*159 FILLER_0_10_83
*160 FILLER_0_10_85
*161 FILLER_0_10_97
*162 FILLER_0_11_113
*163 FILLER_0_11_148
*164 FILLER_0_11_15
*165 FILLER_0_11_164
*166 FILLER_0_11_169
*167 FILLER_0_11_181
*168 FILLER_0_11_189
*169 FILLER_0_11_27
*170 FILLER_0_11_3
*171 FILLER_0_11_39
*172 FILLER_0_11_51
*173 FILLER_0_11_55
*174 FILLER_0_11_57
*175 FILLER_0_11_69
*176 FILLER_0_11_81
*177 FILLER_0_11_93
*178 FILLER_0_12_109
*179 FILLER_0_12_121
*180 FILLER_0_12_133
*181 FILLER_0_12_139
*182 FILLER_0_12_141
*183 FILLER_0_12_15
*184 FILLER_0_12_163
*185 FILLER_0_12_175
*186 FILLER_0_12_187
*187 FILLER_0_12_27
*188 FILLER_0_12_29
*189 FILLER_0_12_3
*190 FILLER_0_12_37
*191 FILLER_0_12_47
*192 FILLER_0_12_59
*193 FILLER_0_12_71
*194 FILLER_0_12_83
*195 FILLER_0_12_85
*196 FILLER_0_12_97
*197 FILLER_0_13_104
*198 FILLER_0_13_113
*199 FILLER_0_13_138
*200 FILLER_0_13_150
*201 FILLER_0_13_162
*202 FILLER_0_13_169
*203 FILLER_0_13_175
*204 FILLER_0_13_183
*205 FILLER_0_13_189
*206 FILLER_0_13_24
*207 FILLER_0_13_3
*208 FILLER_0_13_30
*209 FILLER_0_13_39
*210 FILLER_0_13_54
*211 FILLER_0_13_57
*212 FILLER_0_13_64
*213 FILLER_0_13_68
*214 FILLER_0_13_7
*215 FILLER_0_13_72
*216 FILLER_0_13_84
*217 FILLER_0_13_96
*218 FILLER_0_14_113
*219 FILLER_0_14_125
*220 FILLER_0_14_132
*221 FILLER_0_14_141
*222 FILLER_0_14_153
*223 FILLER_0_14_165
*224 FILLER_0_14_177
*225 FILLER_0_14_189
*226 FILLER_0_14_23
*227 FILLER_0_14_27
*228 FILLER_0_14_29
*229 FILLER_0_14_3
*230 FILLER_0_14_41
*231 FILLER_0_14_53
*232 FILLER_0_14_57
*233 FILLER_0_14_81
*234 FILLER_0_14_85
*235 FILLER_0_15_105
*236 FILLER_0_15_111
*237 FILLER_0_15_113
*238 FILLER_0_15_125
*239 FILLER_0_15_137
*240 FILLER_0_15_149
*241 FILLER_0_15_15
*242 FILLER_0_15_161
*243 FILLER_0_15_167
*244 FILLER_0_15_169
*245 FILLER_0_15_181
*246 FILLER_0_15_189
*247 FILLER_0_15_27
*248 FILLER_0_15_3
*249 FILLER_0_15_39
*250 FILLER_0_15_51
*251 FILLER_0_15_55
*252 FILLER_0_15_57
*253 FILLER_0_15_69
*254 FILLER_0_15_81
*255 FILLER_0_15_93
*256 FILLER_0_16_109
*257 FILLER_0_16_115
*258 FILLER_0_16_132
*259 FILLER_0_16_141
*260 FILLER_0_16_15
*261 FILLER_0_16_153
*262 FILLER_0_16_165
*263 FILLER_0_16_177
*264 FILLER_0_16_189
*265 FILLER_0_16_27
*266 FILLER_0_16_29
*267 FILLER_0_16_3
*268 FILLER_0_16_41
*269 FILLER_0_16_53
*270 FILLER_0_16_65
*271 FILLER_0_16_77
*272 FILLER_0_16_83
*273 FILLER_0_16_85
*274 FILLER_0_16_97
*275 FILLER_0_17_101
*276 FILLER_0_17_109
*277 FILLER_0_17_113
*278 FILLER_0_17_125
*279 FILLER_0_17_137
*280 FILLER_0_17_149
*281 FILLER_0_17_160
*282 FILLER_0_17_169
*283 FILLER_0_17_17
*284 FILLER_0_17_181
*285 FILLER_0_17_189
*286 FILLER_0_17_29
*287 FILLER_0_17_3
*288 FILLER_0_17_41
*289 FILLER_0_17_53
*290 FILLER_0_17_57
*291 FILLER_0_17_69
*292 FILLER_0_17_77
*293 FILLER_0_17_89
*294 FILLER_0_17_9
*295 FILLER_0_18_109
*296 FILLER_0_18_121
*297 FILLER_0_18_129
*298 FILLER_0_18_137
*299 FILLER_0_18_141
*300 FILLER_0_18_153
*301 FILLER_0_18_165
*302 FILLER_0_18_177
*303 FILLER_0_18_189
*304 FILLER_0_18_29
*305 FILLER_0_18_3
*306 FILLER_0_18_41
*307 FILLER_0_18_53
*308 FILLER_0_18_65
*309 FILLER_0_18_74
*310 FILLER_0_18_82
*311 FILLER_0_18_85
*312 FILLER_0_18_97
*313 FILLER_0_19_108
*314 FILLER_0_19_113
*315 FILLER_0_19_125
*316 FILLER_0_19_137
*317 FILLER_0_19_149
*318 FILLER_0_19_15
*319 FILLER_0_19_153
*320 FILLER_0_19_160
*321 FILLER_0_19_164
*322 FILLER_0_19_169
*323 FILLER_0_19_181
*324 FILLER_0_19_189
*325 FILLER_0_19_27
*326 FILLER_0_19_3
*327 FILLER_0_19_39
*328 FILLER_0_19_51
*329 FILLER_0_19_55
*330 FILLER_0_19_57
*331 FILLER_0_19_69
*332 FILLER_0_19_96
*333 FILLER_0_1_113
*334 FILLER_0_1_125
*335 FILLER_0_1_133
*336 FILLER_0_1_141
*337 FILLER_0_1_15
*338 FILLER_0_1_157
*339 FILLER_0_1_165
*340 FILLER_0_1_169
*341 FILLER_0_1_181
*342 FILLER_0_1_189
*343 FILLER_0_1_27
*344 FILLER_0_1_3
*345 FILLER_0_1_34
*346 FILLER_0_1_42
*347 FILLER_0_1_50
*348 FILLER_0_1_57
*349 FILLER_0_1_69
*350 FILLER_0_1_81
*351 FILLER_0_1_87
*352 FILLER_0_1_95
*353 FILLER_0_20_104
*354 FILLER_0_20_133
*355 FILLER_0_20_139
*356 FILLER_0_20_144
*357 FILLER_0_20_15
*358 FILLER_0_20_156
*359 FILLER_0_20_168
*360 FILLER_0_20_180
*361 FILLER_0_20_188
*362 FILLER_0_20_21
*363 FILLER_0_20_27
*364 FILLER_0_20_29
*365 FILLER_0_20_3
*366 FILLER_0_20_41
*367 FILLER_0_20_53
*368 FILLER_0_20_65
*369 FILLER_0_20_77
*370 FILLER_0_20_83
*371 FILLER_0_20_85
*372 FILLER_0_20_97
*373 FILLER_0_21_113
*374 FILLER_0_21_117
*375 FILLER_0_21_135
*376 FILLER_0_21_147
*377 FILLER_0_21_15
*378 FILLER_0_21_159
*379 FILLER_0_21_167
*380 FILLER_0_21_169
*381 FILLER_0_21_181
*382 FILLER_0_21_189
*383 FILLER_0_21_23
*384 FILLER_0_21_28
*385 FILLER_0_21_3
*386 FILLER_0_21_40
*387 FILLER_0_21_52
*388 FILLER_0_21_57
*389 FILLER_0_21_69
*390 FILLER_0_21_81
*391 FILLER_0_21_93
*392 FILLER_0_22_109
*393 FILLER_0_22_121
*394 FILLER_0_22_133
*395 FILLER_0_22_139
*396 FILLER_0_22_141
*397 FILLER_0_22_15
*398 FILLER_0_22_153
*399 FILLER_0_22_165
*400 FILLER_0_22_177
*401 FILLER_0_22_189
*402 FILLER_0_22_27
*403 FILLER_0_22_29
*404 FILLER_0_22_3
*405 FILLER_0_22_41
*406 FILLER_0_22_49
*407 FILLER_0_22_57
*408 FILLER_0_22_68
*409 FILLER_0_22_80
*410 FILLER_0_22_85
*411 FILLER_0_22_97
*412 FILLER_0_23_113
*413 FILLER_0_23_125
*414 FILLER_0_23_137
*415 FILLER_0_23_149
*416 FILLER_0_23_15
*417 FILLER_0_23_169
*418 FILLER_0_23_181
*419 FILLER_0_23_189
*420 FILLER_0_23_22
*421 FILLER_0_23_3
*422 FILLER_0_23_34
*423 FILLER_0_23_46
*424 FILLER_0_23_54
*425 FILLER_0_23_62
*426 FILLER_0_23_74
*427 FILLER_0_23_86
*428 FILLER_0_23_94
*429 FILLER_0_24_109
*430 FILLER_0_24_121
*431 FILLER_0_24_133
*432 FILLER_0_24_139
*433 FILLER_0_24_141
*434 FILLER_0_24_15
*435 FILLER_0_24_153
*436 FILLER_0_24_165
*437 FILLER_0_24_177
*438 FILLER_0_24_189
*439 FILLER_0_24_27
*440 FILLER_0_24_29
*441 FILLER_0_24_3
*442 FILLER_0_24_41
*443 FILLER_0_24_45
*444 FILLER_0_24_70
*445 FILLER_0_24_82
*446 FILLER_0_24_85
*447 FILLER_0_24_97
*448 FILLER_0_25_109
*449 FILLER_0_25_113
*450 FILLER_0_25_125
*451 FILLER_0_25_137
*452 FILLER_0_25_149
*453 FILLER_0_25_15
*454 FILLER_0_25_161
*455 FILLER_0_25_167
*456 FILLER_0_25_169
*457 FILLER_0_25_181
*458 FILLER_0_25_189
*459 FILLER_0_25_27
*460 FILLER_0_25_3
*461 FILLER_0_25_39
*462 FILLER_0_25_51
*463 FILLER_0_25_55
*464 FILLER_0_25_73
*465 FILLER_0_25_85
*466 FILLER_0_25_97
*467 FILLER_0_26_109
*468 FILLER_0_26_115
*469 FILLER_0_26_122
*470 FILLER_0_26_134
*471 FILLER_0_26_141
*472 FILLER_0_26_15
*473 FILLER_0_26_153
*474 FILLER_0_26_165
*475 FILLER_0_26_172
*476 FILLER_0_26_178
*477 FILLER_0_26_182
*478 FILLER_0_26_27
*479 FILLER_0_26_29
*480 FILLER_0_26_3
*481 FILLER_0_26_41
*482 FILLER_0_26_53
*483 FILLER_0_26_65
*484 FILLER_0_26_77
*485 FILLER_0_26_83
*486 FILLER_0_26_85
*487 FILLER_0_26_97
*488 FILLER_0_27_100
*489 FILLER_0_27_108
*490 FILLER_0_27_11
*491 FILLER_0_27_113
*492 FILLER_0_27_127
*493 FILLER_0_27_136
*494 FILLER_0_27_141
*495 FILLER_0_27_148
*496 FILLER_0_27_156
*497 FILLER_0_27_160
*498 FILLER_0_27_17
*499 FILLER_0_27_172
*500 FILLER_0_27_180
*501 FILLER_0_27_184
*502 FILLER_0_27_29
*503 FILLER_0_27_3
*504 FILLER_0_27_40
*505 FILLER_0_27_48
*506 FILLER_0_27_60
*507 FILLER_0_27_64
*508 FILLER_0_27_72
*509 FILLER_0_27_76
*510 FILLER_0_27_88
*511 FILLER_0_27_96
*512 FILLER_0_2_104
*513 FILLER_0_2_116
*514 FILLER_0_2_128
*515 FILLER_0_2_141
*516 FILLER_0_2_15
*517 FILLER_0_2_153
*518 FILLER_0_2_167
*519 FILLER_0_2_171
*520 FILLER_0_2_179
*521 FILLER_0_2_187
*522 FILLER_0_2_27
*523 FILLER_0_2_29
*524 FILLER_0_2_3
*525 FILLER_0_2_41
*526 FILLER_0_2_53
*527 FILLER_0_2_65
*528 FILLER_0_2_77
*529 FILLER_0_2_83
*530 FILLER_0_2_85
*531 FILLER_0_2_94
*532 FILLER_0_3_102
*533 FILLER_0_3_110
*534 FILLER_0_3_113
*535 FILLER_0_3_125
*536 FILLER_0_3_137
*537 FILLER_0_3_141
*538 FILLER_0_3_15
*539 FILLER_0_3_166
*540 FILLER_0_3_185
*541 FILLER_0_3_189
*542 FILLER_0_3_27
*543 FILLER_0_3_3
*544 FILLER_0_3_40
*545 FILLER_0_3_52
*546 FILLER_0_3_57
*547 FILLER_0_3_69
*548 FILLER_0_3_81
*549 FILLER_0_3_90
*550 FILLER_0_4_109
*551 FILLER_0_4_121
*552 FILLER_0_4_133
*553 FILLER_0_4_139
*554 FILLER_0_4_141
*555 FILLER_0_4_146
*556 FILLER_0_4_15
*557 FILLER_0_4_158
*558 FILLER_0_4_170
*559 FILLER_0_4_178
*560 FILLER_0_4_183
*561 FILLER_0_4_189
*562 FILLER_0_4_27
*563 FILLER_0_4_3
*564 FILLER_0_4_45
*565 FILLER_0_4_57
*566 FILLER_0_4_69
*567 FILLER_0_4_81
*568 FILLER_0_4_85
*569 FILLER_0_4_97
*570 FILLER_0_5_102
*571 FILLER_0_5_11
*572 FILLER_0_5_110
*573 FILLER_0_5_113
*574 FILLER_0_5_120
*575 FILLER_0_5_132
*576 FILLER_0_5_144
*577 FILLER_0_5_150
*578 FILLER_0_5_157
*579 FILLER_0_5_165
*580 FILLER_0_5_169
*581 FILLER_0_5_177
*582 FILLER_0_5_183
*583 FILLER_0_5_189
*584 FILLER_0_5_19
*585 FILLER_0_5_3
*586 FILLER_0_5_31
*587 FILLER_0_5_43
*588 FILLER_0_5_53
*589 FILLER_0_5_57
*590 FILLER_0_5_69
*591 FILLER_0_5_73
*592 FILLER_0_5_78
*593 FILLER_0_5_90
*594 FILLER_0_6_117
*595 FILLER_0_6_129
*596 FILLER_0_6_137
*597 FILLER_0_6_141
*598 FILLER_0_6_15
*599 FILLER_0_6_168
*600 FILLER_0_6_180
*601 FILLER_0_6_188
*602 FILLER_0_6_27
*603 FILLER_0_6_29
*604 FILLER_0_6_3
*605 FILLER_0_6_41
*606 FILLER_0_6_53
*607 FILLER_0_6_61
*608 FILLER_0_6_79
*609 FILLER_0_6_83
*610 FILLER_0_6_85
*611 FILLER_0_6_97
*612 FILLER_0_7_101
*613 FILLER_0_7_109
*614 FILLER_0_7_113
*615 FILLER_0_7_125
*616 FILLER_0_7_137
*617 FILLER_0_7_143
*618 FILLER_0_7_15
*619 FILLER_0_7_154
*620 FILLER_0_7_166
*621 FILLER_0_7_169
*622 FILLER_0_7_178
*623 FILLER_0_7_182
*624 FILLER_0_7_27
*625 FILLER_0_7_3
*626 FILLER_0_7_39
*627 FILLER_0_7_51
*628 FILLER_0_7_55
*629 FILLER_0_7_65
*630 FILLER_0_7_77
*631 FILLER_0_7_89
*632 FILLER_0_8_121
*633 FILLER_0_8_133
*634 FILLER_0_8_139
*635 FILLER_0_8_141
*636 FILLER_0_8_15
*637 FILLER_0_8_165
*638 FILLER_0_8_177
*639 FILLER_0_8_189
*640 FILLER_0_8_27
*641 FILLER_0_8_29
*642 FILLER_0_8_3
*643 FILLER_0_8_41
*644 FILLER_0_8_49
*645 FILLER_0_8_85
*646 FILLER_0_8_97
*647 FILLER_0_9_103
*648 FILLER_0_9_107
*649 FILLER_0_9_111
*650 FILLER_0_9_113
*651 FILLER_0_9_125
*652 FILLER_0_9_138
*653 FILLER_0_9_144
*654 FILLER_0_9_148
*655 FILLER_0_9_160
*656 FILLER_0_9_169
*657 FILLER_0_9_17
*658 FILLER_0_9_181
*659 FILLER_0_9_189
*660 FILLER_0_9_29
*661 FILLER_0_9_3
*662 FILLER_0_9_41
*663 FILLER_0_9_53
*664 FILLER_0_9_57
*665 FILLER_0_9_69
*666 FILLER_0_9_81
*667 FILLER_0_9_95
*668 PHY_EDGE_ROW_0_Left_28
*669 PHY_EDGE_ROW_0_Right_0
*670 PHY_EDGE_ROW_10_Left_38
*671 PHY_EDGE_ROW_10_Right_10
*672 PHY_EDGE_ROW_11_Left_39
*673 PHY_EDGE_ROW_11_Right_11
*674 PHY_EDGE_ROW_12_Left_40
*675 PHY_EDGE_ROW_12_Right_12
*676 PHY_EDGE_ROW_13_Left_41
*677 PHY_EDGE_ROW_13_Right_13
*678 PHY_EDGE_ROW_14_Left_42
*679 PHY_EDGE_ROW_14_Right_14
*680 PHY_EDGE_ROW_15_Left_43
*681 PHY_EDGE_ROW_15_Right_15
*682 PHY_EDGE_ROW_16_Left_44
*683 PHY_EDGE_ROW_16_Right_16
*684 PHY_EDGE_ROW_17_Left_45
*685 PHY_EDGE_ROW_17_Right_17
*686 PHY_EDGE_ROW_18_Left_46
*687 PHY_EDGE_ROW_18_Right_18
*688 PHY_EDGE_ROW_19_Left_47
*689 PHY_EDGE_ROW_19_Right_19
*690 PHY_EDGE_ROW_1_Left_29
*691 PHY_EDGE_ROW_1_Right_1
*692 PHY_EDGE_ROW_20_Left_48
*693 PHY_EDGE_ROW_20_Right_20
*694 PHY_EDGE_ROW_21_Left_49
*695 PHY_EDGE_ROW_21_Right_21
*696 PHY_EDGE_ROW_22_Left_50
*697 PHY_EDGE_ROW_22_Right_22
*698 PHY_EDGE_ROW_23_Left_51
*699 PHY_EDGE_ROW_23_Right_23
*700 PHY_EDGE_ROW_24_Left_52
*701 PHY_EDGE_ROW_24_Right_24
*702 PHY_EDGE_ROW_25_Left_53
*703 PHY_EDGE_ROW_25_Right_25
*704 PHY_EDGE_ROW_26_Left_54
*705 PHY_EDGE_ROW_26_Right_26
*706 PHY_EDGE_ROW_27_Left_55
*707 PHY_EDGE_ROW_27_Right_27
*708 PHY_EDGE_ROW_2_Left_30
*709 PHY_EDGE_ROW_2_Right_2
*710 PHY_EDGE_ROW_3_Left_31
*711 PHY_EDGE_ROW_3_Right_3
*712 PHY_EDGE_ROW_4_Left_32
*713 PHY_EDGE_ROW_4_Right_4
*714 PHY_EDGE_ROW_5_Left_33
*715 PHY_EDGE_ROW_5_Right_5
*716 PHY_EDGE_ROW_6_Left_34
*717 PHY_EDGE_ROW_6_Right_6
*718 PHY_EDGE_ROW_7_Left_35
*719 PHY_EDGE_ROW_7_Right_7
*720 PHY_EDGE_ROW_8_Left_36
*721 PHY_EDGE_ROW_8_Right_8
*722 PHY_EDGE_ROW_9_Left_37
*723 PHY_EDGE_ROW_9_Right_9
*724 TAP_TAPCELL_ROW_0_56
*725 TAP_TAPCELL_ROW_0_57
*726 TAP_TAPCELL_ROW_0_58
*727 TAP_TAPCELL_ROW_0_59
*728 TAP_TAPCELL_ROW_0_60
*729 TAP_TAPCELL_ROW_0_61
*730 TAP_TAPCELL_ROW_10_89
*731 TAP_TAPCELL_ROW_10_90
*732 TAP_TAPCELL_ROW_10_91
*733 TAP_TAPCELL_ROW_11_92
*734 TAP_TAPCELL_ROW_11_93
*735 TAP_TAPCELL_ROW_11_94
*736 TAP_TAPCELL_ROW_12_95
*737 TAP_TAPCELL_ROW_12_96
*738 TAP_TAPCELL_ROW_12_97
*739 TAP_TAPCELL_ROW_13_100
*740 TAP_TAPCELL_ROW_13_98
*741 TAP_TAPCELL_ROW_13_99
*742 TAP_TAPCELL_ROW_14_101
*743 TAP_TAPCELL_ROW_14_102
*744 TAP_TAPCELL_ROW_14_103
*745 TAP_TAPCELL_ROW_15_104
*746 TAP_TAPCELL_ROW_15_105
*747 TAP_TAPCELL_ROW_15_106
*748 TAP_TAPCELL_ROW_16_107
*749 TAP_TAPCELL_ROW_16_108
*750 TAP_TAPCELL_ROW_16_109
*751 TAP_TAPCELL_ROW_17_110
*752 TAP_TAPCELL_ROW_17_111
*753 TAP_TAPCELL_ROW_17_112
*754 TAP_TAPCELL_ROW_18_113
*755 TAP_TAPCELL_ROW_18_114
*756 TAP_TAPCELL_ROW_18_115
*757 TAP_TAPCELL_ROW_19_116
*758 TAP_TAPCELL_ROW_19_117
*759 TAP_TAPCELL_ROW_19_118
*760 TAP_TAPCELL_ROW_1_62
*761 TAP_TAPCELL_ROW_1_63
*762 TAP_TAPCELL_ROW_1_64
*763 TAP_TAPCELL_ROW_20_119
*764 TAP_TAPCELL_ROW_20_120
*765 TAP_TAPCELL_ROW_20_121
*766 TAP_TAPCELL_ROW_21_122
*767 TAP_TAPCELL_ROW_21_123
*768 TAP_TAPCELL_ROW_21_124
*769 TAP_TAPCELL_ROW_22_125
*770 TAP_TAPCELL_ROW_22_126
*771 TAP_TAPCELL_ROW_22_127
*772 TAP_TAPCELL_ROW_23_128
*773 TAP_TAPCELL_ROW_23_129
*774 TAP_TAPCELL_ROW_23_130
*775 TAP_TAPCELL_ROW_24_131
*776 TAP_TAPCELL_ROW_24_132
*777 TAP_TAPCELL_ROW_24_133
*778 TAP_TAPCELL_ROW_25_134
*779 TAP_TAPCELL_ROW_25_135
*780 TAP_TAPCELL_ROW_25_136
*781 TAP_TAPCELL_ROW_26_137
*782 TAP_TAPCELL_ROW_26_138
*783 TAP_TAPCELL_ROW_26_139
*784 TAP_TAPCELL_ROW_27_140
*785 TAP_TAPCELL_ROW_27_141
*786 TAP_TAPCELL_ROW_27_142
*787 TAP_TAPCELL_ROW_27_143
*788 TAP_TAPCELL_ROW_27_144
*789 TAP_TAPCELL_ROW_27_145
*790 TAP_TAPCELL_ROW_2_65
*791 TAP_TAPCELL_ROW_2_66
*792 TAP_TAPCELL_ROW_2_67
*793 TAP_TAPCELL_ROW_3_68
*794 TAP_TAPCELL_ROW_3_69
*795 TAP_TAPCELL_ROW_3_70
*796 TAP_TAPCELL_ROW_4_71
*797 TAP_TAPCELL_ROW_4_72
*798 TAP_TAPCELL_ROW_4_73
*799 TAP_TAPCELL_ROW_5_74
*800 TAP_TAPCELL_ROW_5_75
*801 TAP_TAPCELL_ROW_5_76
*802 TAP_TAPCELL_ROW_6_77
*803 TAP_TAPCELL_ROW_6_78
*804 TAP_TAPCELL_ROW_6_79
*805 TAP_TAPCELL_ROW_7_80
*806 TAP_TAPCELL_ROW_7_81
*807 TAP_TAPCELL_ROW_7_82
*808 TAP_TAPCELL_ROW_8_83
*809 TAP_TAPCELL_ROW_8_84
*810 TAP_TAPCELL_ROW_8_85
*811 TAP_TAPCELL_ROW_9_86
*812 TAP_TAPCELL_ROW_9_87
*813 TAP_TAPCELL_ROW_9_88
*814 TopZeroToFive_10
*815 TopZeroToFive_11
*816 TopZeroToFive_12
*817 TopZeroToFive_13
*818 TopZeroToFive_14
*819 TopZeroToFive_15
*820 TopZeroToFive_16
*821 TopZeroToFive_9
*822 _063_
*823 _064_
*824 _065_
*825 _066_
*826 _067_
*827 _068_
*828 _069_
*829 _070_
*830 _071_
*831 _072_
*832 _073_
*833 _074_
*834 _075_
*835 _076_
*836 _077_
*837 _078_
*838 _079_
*839 _080_
*840 _081_
*841 _082_
*842 _083_
*843 _084_
*844 _085_
*845 _086_
*846 _087_
*847 _088_
*848 _089_
*849 _090_
*850 _091_
*851 _092_
*852 _093_
*853 _094_
*854 _095_
*855 _096_
*856 _097_
*857 _098_
*858 _099_
*859 _100_
*860 _101_
*861 _102_
*862 _103_
*863 _104_
*864 _105_
*865 _106_
*866 _107_
*867 _108_
*868 _109_
*869 _110_
*870 _111_
*871 _112_
*872 _113_
*873 _114_
*874 _115_
*875 _116_
*876 _117_
*877 _118_
*878 _119_
*879 _120_
*880 _121_
*881 _122_
*882 _123_
*883 _124_
*884 _125_
*885 _126_
*886 _127_
*887 _128_
*888 _129_
*889 _130_
*890 _131_
*891 _132_
*892 _133_
*893 _134_
*894 _135_
*895 _136_
*896 _137_
*897 _138_
*898 _139_
*899 _140_
*900 _141_
*901 _142_
*902 _143_
*903 _144_
*904 _145_
*905 _146_
*906 _147_
*907 _148_
*908 _149_
*909 _150_
*910 _151_
*911 _152_
*912 _153_
*913 _154_
*914 _155_
*915 _164_
*916 clkbuf_0_clk
*917 clkbuf_1_0__f_clk
*918 clkbuf_1_1__f_clk
*919 clkload0
*920 hold1
*921 input1
*922 output2
*923 output3
*924 output4
*925 output5
*926 output6
*927 output7
*928 output8

*PORTS
an[0] O
an[1] O
an[2] O
an[3] O
an[4] O
an[5] O
an[6] O
an[7] O
btnC I
clk I
seg[0] O
seg[1] O
seg[2] O
seg[3] O
seg[4] O
seg[5] O
seg[6] O

*D_NET *3 0.00111354
*CONN
*P an[0] O
*I *821:LO O *D sky130_fd_sc_hd__conb_1
*CAP
1 an[0] 0.000556771
2 *821:LO 0.000556771
*RES
1 *821:LO an[0] 24.4786 
*END

*D_NET *4 0.0012433
*CONN
*P an[1] O
*I *814:HI O *D sky130_fd_sc_hd__conb_1
*CAP
1 an[1] 0.00062165
2 *814:HI 0.00062165
3 an[1] an[2] 0
*RES
1 *814:HI an[1] 24.9429 
*END

*D_NET *5 0.000982415
*CONN
*P an[2] O
*I *815:HI O *D sky130_fd_sc_hd__conb_1
*CAP
1 an[2] 0.000491208
2 *815:HI 0.000491208
3 an[1] an[2] 0
*RES
1 *815:HI an[2] 23.05 
*END

*D_NET *6 0.000995348
*CONN
*P an[3] O
*I *816:HI O *D sky130_fd_sc_hd__conb_1
*CAP
1 an[3] 0.00048174
2 *816:HI 0.00048174
3 an[3] *823:C 3.18676e-05
*RES
1 *816:HI an[3] 23.05 
*END

*D_NET *7 0.000995348
*CONN
*P an[4] O
*I *817:HI O *D sky130_fd_sc_hd__conb_1
*CAP
1 an[4] 0.00048174
2 *817:HI 0.00048174
3 an[4] *116:53 3.18676e-05
*RES
1 *817:HI an[4] 23.05 
*END

*D_NET *8 0.000995348
*CONN
*P an[5] O
*I *818:HI O *D sky130_fd_sc_hd__conb_1
*CAP
1 an[5] 0.00048174
2 *818:HI 0.00048174
3 an[5] *116:53 3.18676e-05
*RES
1 *818:HI an[5] 23.05 
*END

*D_NET *9 0.00102117
*CONN
*P an[6] O
*I *819:HI O *D sky130_fd_sc_hd__conb_1
*CAP
1 an[6] 0.000482287
2 *819:HI 0.000482287
3 an[6] *826:B 5.65955e-05
*RES
1 *819:HI an[6] 23.05 
*END

*D_NET *10 0.00101788
*CONN
*P an[7] O
*I *820:HI O *D sky130_fd_sc_hd__conb_1
*CAP
1 an[7] 0.000480364
2 *820:HI 0.000480364
3 an[7] *826:B 5.71472e-05
*RES
1 *820:HI an[7] 23.05 
*END

*D_NET *11 0.00102536
*CONN
*P btnC I
*I *921:A I *D sky130_fd_sc_hd__buf_2
*CAP
1 btnC 0.000512682
2 *921:A 0.000512682
*RES
1 btnC *921:A 23.6571 
*END

*D_NET *12 0.0130165
*CONN
*P clk I
*I *916:A I *D sky130_fd_sc_hd__clkbuf_16
*CAP
1 clk 0.00649314
2 *916:A 0
3 *12:23 0.00649314
4 *12:23 *67:23 2.06112e-05
5 *12:23 *117:16 9.59532e-06
*RES
1 clk *12:23 46.7962 
2 *12:23 *916:A 9.3 
*END

*D_NET *13 0.00101788
*CONN
*P seg[0] O
*I *922:X O *D sky130_fd_sc_hd__buf_1
*CAP
1 seg[0] 0.000480364
2 *922:X 0.000480364
3 seg[0] *826:B 5.71472e-05
*RES
1 *922:X seg[0] 23.05 
*END

*D_NET *14 0.0010191
*CONN
*P seg[1] O
*I *923:X O *D sky130_fd_sc_hd__buf_1
*CAP
1 seg[1] 0.000480976
2 *923:X 0.000480976
3 seg[1] seg[2] 0
4 seg[1] *826:B 5.71472e-05
*RES
1 *923:X seg[1] 23.05 
*END

*D_NET *15 0.00128082
*CONN
*P seg[2] O
*I *924:X O *D sky130_fd_sc_hd__buf_1
*CAP
1 seg[2] 0.000590416
2 *924:X 0.000590416
3 seg[2] *826:B 9.99853e-05
4 seg[1] seg[2] 0
*RES
1 *924:X seg[2] 26.4071 
*END

*D_NET *16 0.00101788
*CONN
*P seg[3] O
*I *925:X O *D sky130_fd_sc_hd__buf_1
*CAP
1 seg[3] 0.000480364
2 *925:X 0.000480364
3 seg[3] *826:B 5.71472e-05
*RES
1 *925:X seg[3] 23.05 
*END

*D_NET *17 0.00168889
*CONN
*P seg[4] O
*I *926:X O *D sky130_fd_sc_hd__buf_1
*CAP
1 seg[4] 0.000721618
2 *926:X 0.000721618
3 seg[4] *826:A 1.32552e-05
4 seg[4] *826:B 0.000232399
*RES
1 *926:X seg[4] 26.3357 
*END

*D_NET *18 0.000982415
*CONN
*P seg[5] O
*I *927:X O *D sky130_fd_sc_hd__buf_1
*CAP
1 seg[5] 0.000491208
2 *927:X 0.000491208
*RES
1 *927:X seg[5] 23.05 
*END

*D_NET *19 0.000982415
*CONN
*P seg[6] O
*I *928:X O *D sky130_fd_sc_hd__buf_1
*CAP
1 seg[6] 0.000491208
2 *928:X 0.000491208
*RES
1 *928:X seg[6] 23.05 
*END

*D_NET *20 0.00234324
*CONN
*I *911:D I *D sky130_fd_sc_hd__dfrtp_4
*I *825:X O *D sky130_fd_sc_hd__o21ba_1
*CAP
1 *911:D 0.000341776
2 *825:X 0.000341776
3 *911:D *825:B1_N 5.49995e-05
4 *911:D *875:C 0.000429497
5 *911:D *23:18 0.000143844
6 *911:D *55:16 0.000180111
7 *911:D *91:29 0.000246703
8 *911:D *104:10 0.000604529
*RES
1 *825:X *911:D 40.4036 
*END

*D_NET *21 0.0189196
*CONN
*I *912:D I *D sky130_fd_sc_hd__dfrtp_4
*I *119:DIODE I *D sky130_fd_sc_hd__diode_2
*I *826:X O *D sky130_fd_sc_hd__xor2_1
*CAP
1 *912:D 0.00018487
2 *119:DIODE 0
3 *826:X 0.00719805
4 *21:26 0.00738292
5 *912:D *829:B 7.48624e-05
6 *912:D *66:8 9.84673e-05
7 *21:26 *830:A 8.23597e-06
8 *21:26 *844:A 0.000381414
9 *21:26 *854:A 0.000114617
10 *21:26 *880:C 0.000119987
11 *21:26 *902:D 0.000223954
12 *21:26 *926:A 0
13 *21:26 *37:14 0.000705889
14 *21:26 *42:14 0.000396584
15 *21:26 *52:8 0.000640964
16 *21:26 *54:8 0.000547027
17 *21:26 *57:27 2.11419e-05
18 *21:26 *102:37 0.000296165
19 *21:26 *111:12 0.00052447
*RES
1 *826:X *21:26 49.8101 
2 *21:26 *119:DIODE 9.3 
3 *21:26 *912:D 12.8536 
*END

*D_NET *22 0.0133261
*CONN
*I *913:D I *D sky130_fd_sc_hd__dfrtp_4
*I *830:X O *D sky130_fd_sc_hd__buf_1
*CAP
1 *913:D 0.000767907
2 *830:X 0
3 *22:6 0.00468385
4 *22:4 0.00391595
5 *913:D *856:A 0.000141375
6 *913:D *894:CLK 8.47986e-05
7 *913:D *894:D 0
8 *913:D *101:10 0.00148535
9 *22:6 *840:A 0.00023814
10 *22:6 *875:C 0.00048453
11 *22:6 *875:D 4.38661e-05
12 *22:6 *880:B 0.000227532
13 *22:6 *880:C 0.000676737
14 *22:6 *86:27 0.000207299
15 *22:6 *86:34 0.000132251
16 *22:6 *86:84 0.000236539
*RES
1 *830:X *22:4 9.3 
2 *22:4 *22:6 49.8214 
3 *22:6 *913:D 39.0679 
*END

*D_NET *23 0.00534241
*CONN
*I *914:D I *D sky130_fd_sc_hd__dfrtp_4
*I *831:Y O *D sky130_fd_sc_hd__xnor2_1
*CAP
1 *914:D 0
2 *831:Y 0.0010275
3 *23:18 0.0010275
4 *23:18 *825:B1_N 5.49995e-05
5 *23:18 *828:A2 0.000394949
6 *23:18 *831:B 0.000593326
7 *23:18 *861:A1 8.69272e-05
8 *23:18 *875:C 0.000420874
9 *23:18 *914:CLK 0.000183711
10 *23:18 *64:8 4.15914e-05
11 *23:18 *91:20 9.96553e-05
12 *23:18 *91:29 0.000820995
13 *23:18 *114:20 0.000307474
14 *23:18 *114:22 0.000139062
15 *911:D *23:18 0.000143844
*RES
1 *831:Y *23:18 48.8 
2 *23:18 *914:D 9.3 
*END

*D_NET *24 0.00253714
*CONN
*I *891:D I *D sky130_fd_sc_hd__dfxtp_2
*I *840:Y O *D sky130_fd_sc_hd__inv_2
*CAP
1 *891:D 0.000873867
2 *840:Y 0.000873867
3 *891:D *891:CLK 1.64343e-05
4 *891:D *86:27 0.000170964
5 *891:D *86:34 0.000409579
6 *891:D *88:10 0.000174805
7 *891:D *89:8 1.76204e-05
8 *891:D *108:12 0
*RES
1 *840:Y *891:D 40.408 
*END

*D_NET *25 0.00532021
*CONN
*I *901:D I *D sky130_fd_sc_hd__dfxtp_1
*I *864:X O *D sky130_fd_sc_hd__xor2_1
*CAP
1 *901:D 0.00022975
2 *864:X 0.001373
3 *25:12 0.00160275
4 *901:D *898:CLK 0.000448847
5 *901:D *84:106 0.000117307
6 *25:12 *853:A2 0.000648602
7 *25:12 *898:CLK 0.000179656
8 *25:12 *927:A 0
9 *25:12 *41:12 0
10 *25:12 *48:37 5.66971e-05
11 *25:12 *102:16 0.000663598
*RES
1 *864:X *25:12 49.6214 
2 *25:12 *901:D 15.2286 
*END

*D_NET *26 0.00812674
*CONN
*I *902:D I *D sky130_fd_sc_hd__dfxtp_1
*I *868:X O *D sky130_fd_sc_hd__o21ba_1
*CAP
1 *902:D 0.000590521
2 *868:X 0.00108176
3 *26:10 0.00167228
4 *902:D *877:B 0.000221163
5 *902:D *902:CLK 5.49544e-05
6 *902:D *40:14 0
7 *902:D *84:10 4.66511e-05
8 *902:D *84:12 0.000164284
9 *902:D *84:16 0.00100476
10 *902:D *84:18 7.79428e-05
11 *902:D *101:8 0.000136993
12 *902:D *111:12 0.00165126
13 *26:10 *852:B 0.00034082
14 *26:10 *853:B1 0.000198115
15 *26:10 *926:A 7.53226e-05
16 *26:10 *51:60 0.000338351
17 *26:10 *111:12 0.0002476
18 *21:26 *902:D 0.000223954
*RES
1 *868:X *26:10 36.8804 
2 *26:10 *902:D 37.5232 
*END

*D_NET *27 0.00270727
*CONN
*I *903:D I *D sky130_fd_sc_hd__dfxtp_1
*I *871:Y O *D sky130_fd_sc_hd__nor2_1
*CAP
1 *903:D 0.000937333
2 *871:Y 0.000937333
3 *903:D *875:A 0.000592804
4 *903:D *903:CLK 0.000139202
5 *903:D *55:16 6.02454e-05
6 *903:D *116:38 4.03518e-05
*RES
1 *871:Y *903:D 43.6045 
*END

*D_NET *28 0.00889875
*CONN
*I *904:D I *D sky130_fd_sc_hd__dfxtp_1
*I *873:X O *D sky130_fd_sc_hd__o21ba_1
*CAP
1 *904:D 0
2 *873:X 0.000598359
3 *28:14 0.00175556
4 *28:8 0.00235392
5 *28:8 *839:A1 1.46148e-05
6 *28:8 *839:A2 0.00079122
7 *28:8 *873:A2 0.000186393
8 *28:8 *873:B1_N 0.000228136
9 *28:8 *90:22 0.000178255
10 *28:8 *111:8 0.00078596
11 *28:14 *884:B 0.000311345
12 *28:14 *904:CLK 0.000127114
13 *28:14 *33:8 0
14 *28:14 *58:33 0.000142985
15 *28:14 *70:24 0.000511908
16 *28:14 *98:12 0.000146254
17 *28:14 *117:16 0.000766722
*RES
1 *873:X *28:8 30.7643 
2 *28:8 *28:14 41.0938 
3 *28:14 *904:D 9.3 
*END

*D_NET *29 0.00287497
*CONN
*I *905:D I *D sky130_fd_sc_hd__dfxtp_1
*I *874:X O *D sky130_fd_sc_hd__xor2_1
*CAP
1 *905:D 0.0011913
2 *874:X 0.0011913
3 *905:D *900:D 0
4 *905:D *34:10 0
5 *905:D *37:14 0
6 *905:D *52:37 0.000142856
7 *905:D *73:14 5.52238e-05
8 *905:D *86:84 6.6699e-05
9 *905:D *91:8 3.30833e-05
10 *905:D *115:14 0.000128702
11 *905:D *115:51 6.58102e-05
*RES
1 *874:X *905:D 45.725 
*END

*D_NET *30 0.00370429
*CONN
*I *906:D I *D sky130_fd_sc_hd__dfxtp_1
*I *878:X O *D sky130_fd_sc_hd__o21ba_1
*CAP
1 *906:D 0.000383615
2 *878:X 0.000383615
3 *906:D *878:A1 0.000436039
4 *906:D *878:B1_N 0.000489683
5 *906:D *885:C 0.00107933
6 *906:D *886:B 0.000404439
7 *906:D *906:CLK 0.000527562
*RES
1 *878:X *906:D 35.4259 
*END

*D_NET *31 0.0042486
*CONN
*I *907:D I *D sky130_fd_sc_hd__dfxtp_1
*I *879:X O *D sky130_fd_sc_hd__xor2_1
*CAP
1 *907:D 0.000330561
2 *879:X 0.00106539
3 *31:10 0.00139595
4 *907:D *84:65 0.00025663
5 *31:10 *842:A 0.000480922
6 *31:10 *859:A2 0.000150264
7 *31:10 *877:D 0
8 *31:10 *880:B 0
9 *31:10 *81:10 0.00051975
10 *31:10 *81:23 4.91281e-05
11 *31:10 *101:10 0
*RES
1 *879:X *31:10 44.8357 
2 *31:10 *907:D 15.0366 
*END

*D_NET *32 0.0168484
*CONN
*I *908:D I *D sky130_fd_sc_hd__dfxtp_1
*I *883:X O *D sky130_fd_sc_hd__buf_1
*CAP
1 *908:D 0.000116865
2 *883:X 7.2681e-05
3 *32:14 0.00419158
4 *32:8 0.00414739
5 *908:D *876:B 4.23907e-05
6 *908:D *908:CLK 0.0001399
7 *908:D *94:23 0.000139639
8 *32:8 *893:D 9.58689e-05
9 *32:14 *825:A1 0.00162915
10 *32:14 *830:A 0.00048491
11 *32:14 *857:B 0.000629445
12 *32:14 *881:A2 0.000172734
13 *32:14 *37:14 0.00418333
14 *32:14 *57:27 1.90936e-05
15 *32:14 *69:10 0.00025696
16 *32:14 *69:22 7.92879e-05
17 *32:14 *85:12 9.86588e-05
18 *32:14 *85:88 0.000303562
19 *32:14 *100:10 9.47364e-06
20 *32:14 *100:20 3.54719e-05
21 *32:14 *114:20 0
*RES
1 *883:X *32:8 14.7464 
2 *32:8 *32:14 48.0068 
3 *32:14 *908:D 20.2904 
*END

*D_NET *33 0.0065962
*CONN
*I *909:D I *D sky130_fd_sc_hd__dfxtp_1
*I *884:Y O *D sky130_fd_sc_hd__xnor2_1
*CAP
1 *909:D 2.07572e-05
2 *884:Y 0
3 *33:8 0.00282315
4 *33:6 0.00280239
5 *909:D *909:CLK 8.95186e-05
6 *909:D *105:29 3.29354e-05
7 *33:8 *835:C 0
8 *33:8 *836:A 6.44649e-05
9 *33:8 *848:B1 0
10 *33:8 *884:B 0.000578885
11 *33:8 *49:16 0
12 *33:8 *58:33 0.000141963
13 *33:8 *70:24 0
14 *33:8 *81:38 0
15 *33:8 *96:32 0
16 *33:8 *96:38 0
17 *33:8 *98:12 4.21415e-05
18 *28:14 *33:8 0
*RES
1 *884:Y *33:6 13.8 
2 *33:6 *33:8 50.8214 
3 *33:8 *909:D 14.6571 
*END

*D_NET *34 0.00761374
*CONN
*I *910:D I *D sky130_fd_sc_hd__dfxtp_2
*I *886:X O *D sky130_fd_sc_hd__xor2_1
*CAP
1 *910:D 3.45741e-05
2 *886:X 0.000207349
3 *34:10 0.00219176
4 *34:8 0.00236454
5 *910:D *910:CLK 8.95121e-05
6 *34:8 *886:A 2.7241e-05
7 *34:10 *823:A 0
8 *34:10 *838:B1 0
9 *34:10 *838:C1 0.000185596
10 *34:10 *861:A2 0
11 *34:10 *888:A 0
12 *34:10 *905:CLK 0.000283153
13 *34:10 *912:RESET_B 0.000168884
14 *34:10 *36:12 0
15 *34:10 *60:10 0
16 *34:10 *63:10 0
17 *34:10 *73:14 0.000129856
18 *34:10 *85:23 0.000406607
19 *34:10 *85:25 0.000186372
20 *34:10 *115:14 0.000363903
21 *34:10 *115:51 0.000974389
22 *905:D *34:10 0
*RES
1 *886:X *34:8 16.3893 
2 *34:8 *34:10 50.5179 
3 *34:10 *910:D 14.6571 
*END

*D_NET *35 0.00389871
*CONN
*I *892:D I *D sky130_fd_sc_hd__dfxtp_1
*I *844:X O *D sky130_fd_sc_hd__clkbuf_1
*CAP
1 *892:D 0.000598119
2 *844:X 0.000598119
3 *892:D *868:A1 0.000941306
4 *892:D *51:47 0.000943021
5 *892:D *84:10 0.000228514
6 *892:D *84:65 5.33005e-05
7 *892:D *84:91 0.000382938
8 *892:D *89:46 0.000136958
9 *892:D *112:6 1.64343e-05
*RES
1 *844:X *892:D 47.2473 
*END

*D_NET *36 0.00721163
*CONN
*I *893:D I *D sky130_fd_sc_hd__dfxtp_1
*I *845:Y O *D sky130_fd_sc_hd__xnor2_1
*CAP
1 *893:D 0.000517399
2 *845:Y 0.00116039
3 *36:12 0.00167779
4 *893:D *883:A 0.000609671
5 *893:D *81:55 0.000208999
6 *893:D *97:27 7.00856e-05
7 *893:D *100:20 0.000295935
8 *36:12 *823:A 6.66677e-05
9 *36:12 *838:B1 0.000209815
10 *36:12 *845:B 0.00086439
11 *36:12 *861:A2 5.94811e-05
12 *36:12 *115:64 0.000848097
13 *36:12 *115:75 0.000527039
14 *32:8 *893:D 9.58689e-05
15 *34:10 *36:12 0
*RES
1 *845:Y *36:12 44.0679 
2 *36:12 *893:D 20.7866 
*END

*D_NET *37 0.0186343
*CONN
*I *894:D I *D sky130_fd_sc_hd__dfxtp_1
*I *850:X O *D sky130_fd_sc_hd__buf_1
*CAP
1 *894:D 0.00132165
2 *850:X 0.00542479
3 *37:14 0.00674643
4 *894:D *894:CLK 0.000189786
5 *894:D *58:10 6.24558e-05
6 *894:D *93:8 0
7 *894:D *93:18 0
8 *894:D *101:10 0
9 *905:D *37:14 0
10 *913:D *894:D 0
11 *21:26 *37:14 0.000705889
12 *32:14 *37:14 0.00418333
*RES
1 *850:X *37:14 33.1384 
2 *37:14 *894:D 38.0455 
*END

*D_NET *38 0.00133511
*CONN
*I *895:D I *D sky130_fd_sc_hd__dfxtp_1
*I *851:X O *D sky130_fd_sc_hd__xor2_1
*CAP
1 *895:D 0.000376245
2 *851:X 0.000376245
3 *895:D *865:A 0
4 *895:D *895:CLK 1.64343e-05
5 *895:D *90:65 0.000566187
*RES
1 *851:X *895:D 35.1759 
*END

*D_NET *39 0.0094067
*CONN
*I *896:D I *D sky130_fd_sc_hd__dfxtp_1
*I *854:Y O *D sky130_fd_sc_hd__nor2_1
*CAP
1 *896:D 0
2 *854:Y 9.99843e-05
3 *39:12 0.00224272
4 *39:10 0.0023427
5 *39:10 *102:37 0.000170625
6 *39:12 *864:A 0.00251646
7 *39:12 *85:12 0.000958169
8 *39:12 *87:20 0.000124296
9 *39:12 *98:37 0.000515933
10 *39:12 *100:10 0.000435813
*RES
1 *854:Y *39:10 20.55 
2 *39:10 *39:12 44.5223 
3 *39:12 *896:D 9.3 
*END

*D_NET *40 0.0115889
*CONN
*I *897:D I *D sky130_fd_sc_hd__dfxtp_1
*I *855:X O *D sky130_fd_sc_hd__xor2_1
*CAP
1 *897:D 0
2 *855:X 0.000894235
3 *40:14 0.00169896
4 *40:8 0.00259319
5 *40:8 *855:B 0.000531653
6 *40:8 *42:14 0.000561107
7 *40:8 *81:23 0.00133655
8 *40:8 *113:10 0.000127031
9 *40:14 *897:CLK 0.000127067
10 *40:14 *71:10 0.00203355
11 *40:14 *84:12 0
12 *40:14 *84:16 0
13 *40:14 *88:10 1.72894e-05
14 *40:14 *101:8 0.00158903
15 *40:14 *103:16 7.92444e-05
16 *902:D *40:14 0
*RES
1 *855:X *40:8 34.8714 
2 *40:8 *40:14 46.5223 
3 *40:14 *897:D 9.3 
*END

*D_NET *41 0.00420641
*CONN
*I *898:D I *D sky130_fd_sc_hd__dfxtp_1
*I *859:X O *D sky130_fd_sc_hd__o21ba_1
*CAP
1 *898:D 0
2 *859:X 0.00146583
3 *41:12 0.00146583
4 *41:12 *859:A2 0
5 *41:12 *927:A 0.000886625
6 *41:12 *81:23 0.000388124
7 *25:12 *41:12 0
*RES
1 *859:X *41:12 48.733 
2 *41:12 *898:D 9.3 
*END

*D_NET *42 0.00536392
*CONN
*I *899:D I *D sky130_fd_sc_hd__dfxtp_1
*I *860:X O *D sky130_fd_sc_hd__xor2_1
*CAP
1 *899:D 0
2 *860:X 0.00110259
3 *42:14 0.00110259
4 *42:14 *842:A 1.76204e-05
5 *42:14 *854:A 0.000706937
6 *42:14 *899:CLK 1.64343e-05
7 *42:14 *52:8 0.000891587
8 *42:14 *81:23 6.2127e-05
9 *42:14 *102:16 0
10 *42:14 *102:37 0.000506356
11 *21:26 *42:14 0.000396584
12 *40:8 *42:14 0.000561107
*RES
1 *860:X *42:14 46.8402 
2 *42:14 *899:D 9.3 
*END

*D_NET *43 0.00216582
*CONN
*I *900:D I *D sky130_fd_sc_hd__dfxtp_1
*I *863:Y O *D sky130_fd_sc_hd__nor2_1
*CAP
1 *900:D 0.000979004
2 *863:Y 0.000979004
3 *900:D *846:C 6.02454e-05
4 *900:D *863:A 0.000143375
5 *900:D *73:14 0
6 *900:D *96:59 4.19624e-06
7 *905:D *900:D 0
*RES
1 *863:Y *900:D 42.1223 
*END

*D_NET *44 0.00640391
*CONN
*I *911:RESET_B I *D sky130_fd_sc_hd__dfrtp_4
*I *887:Y O *D sky130_fd_sc_hd__inv_2
*CAP
1 *911:RESET_B 0.000471184
2 *887:Y 0.00122415
3 *44:16 0.00169533
4 *911:RESET_B *911:CLK 5.33433e-05
5 *911:RESET_B *85:40 0.000220162
6 *44:16 *857:C 0.000356575
7 *44:16 *866:C 0.000144732
8 *44:16 *867:C 0
9 *44:16 *897:CLK 0.000383948
10 *44:16 *50:8 0
11 *44:16 *51:24 0.000431006
12 *44:16 *70:24 9.84673e-05
13 *44:16 *74:12 9.15842e-06
14 *44:16 *76:20 0.000579031
15 *44:16 *85:40 0.000338359
16 *44:16 *86:38 9.34539e-05
17 *44:16 *101:8 0.000305009
*RES
1 *887:Y *44:16 48.5321 
2 *44:16 *911:RESET_B 6.77679 
*END

*D_NET *45 0.000815706
*CONN
*I *912:RESET_B I *D sky130_fd_sc_hd__dfrtp_4
*I *888:Y O *D sky130_fd_sc_hd__inv_2
*CAP
1 *912:RESET_B 0.000225671
2 *888:Y 0.000225671
3 *912:RESET_B *888:A 3.6236e-05
4 *912:RESET_B *905:CLK 8.50152e-05
5 *912:RESET_B *91:8 4.14623e-05
6 *912:RESET_B *116:14 3.27666e-05
7 *34:10 *912:RESET_B 0.000168884
*RES
1 *888:Y *912:RESET_B 23.0768 
*END

*D_NET *46 0.00188835
*CONN
*I *913:RESET_B I *D sky130_fd_sc_hd__dfrtp_4
*I *889:Y O *D sky130_fd_sc_hd__inv_2
*CAP
1 *913:RESET_B 0.000901417
2 *889:Y 0.000901417
3 *913:RESET_B *105:12 8.55173e-05
*RES
1 *889:Y *913:RESET_B 33.2643 
*END

*D_NET *47 0.00490929
*CONN
*I *914:RESET_B I *D sky130_fd_sc_hd__dfrtp_4
*I *890:Y O *D sky130_fd_sc_hd__inv_2
*CAP
1 *914:RESET_B 0.00137733
2 *890:Y 0.00137733
3 *914:RESET_B *824:A 7.94274e-05
4 *914:RESET_B *895:CLK 0.000226061
5 *914:RESET_B *915:A 0.00116011
6 *914:RESET_B *48:16 7.65336e-06
7 *914:RESET_B *76:16 2.51343e-06
8 *914:RESET_B *90:65 0.000678867
9 *914:RESET_B *99:14 0
10 *914:RESET_B *99:20 0
*RES
1 *890:Y *914:RESET_B 47.1393 
*END

*D_NET *48 0.0159805
*CONN
*I *864:B I *D sky130_fd_sc_hd__xor2_1
*I *863:B I *D sky130_fd_sc_hd__nor2_1
*I *862:X O *D sky130_fd_sc_hd__and3_1
*CAP
1 *864:B 0
2 *863:B 0
3 *862:X 0.000253428
4 *48:37 0.0012077
5 *48:26 0.0015165
6 *48:16 0.00297764
7 *48:16 *824:A 5.48781e-05
8 *48:16 *825:A2 0.000222244
9 *48:16 *862:A 0.000180355
10 *48:16 *862:C 1.39726e-05
11 *48:16 *69:22 0.000170279
12 *48:16 *90:10 0.000355481
13 *48:16 *99:20 3.80347e-05
14 *48:26 *863:A 0.000743562
15 *48:26 *875:A 0.000222878
16 *48:26 *881:A2 0.000563315
17 *48:26 *881:B1 0.000118948
18 *48:26 *69:22 0.000565637
19 *48:26 *90:10 0.000583506
20 *48:26 *90:22 0.000759743
21 *48:37 *864:A 0.00113926
22 *48:37 *53:14 0.00259707
23 *48:37 *98:14 0.000439316
24 *48:37 *98:37 0.00119242
25 *914:RESET_B *48:16 7.65336e-06
26 *25:12 *48:37 5.66971e-05
*RES
1 *862:X *48:16 30.6929 
2 *48:16 *48:26 42.0179 
3 *48:26 *863:B 9.3 
4 *48:16 *48:37 41.6071 
5 *48:37 *864:B 9.3 
*END

*D_NET *49 0.00424028
*CONN
*I *868:A2 I *D sky130_fd_sc_hd__o21ba_1
*I *865:X O *D sky130_fd_sc_hd__and4_1
*CAP
1 *868:A2 0
2 *865:X 0.00149233
3 *49:16 0.00149233
4 *49:16 *848:A1 8.83295e-05
5 *49:16 *848:A2 0.00015078
6 *49:16 *848:A3 5.49995e-05
7 *49:16 *849:A_N 8.90236e-05
8 *49:16 *868:A1 0.000444483
9 *49:16 *100:24 0.000136727
10 *49:16 *105:29 0.000291284
11 *33:8 *49:16 0
*RES
1 *865:X *49:16 45.5679 
2 *49:16 *868:A2 9.3 
*END

*D_NET *50 0.00755453
*CONN
*I *877:C I *D sky130_fd_sc_hd__and4_2
*I *867:C I *D sky130_fd_sc_hd__and3_1
*I *866:X O *D sky130_fd_sc_hd__and4_1
*CAP
1 *877:C 0.00127669
2 *867:C 0.00062233
3 *866:X 0.000299538
4 *50:8 0.00219856
5 *867:C *839:A2 0.000206253
6 *867:C *867:A 0.000126946
7 *867:C *76:20 0
8 *867:C *96:32 1.83766e-05
9 *867:C *96:38 0.000176802
10 *877:C *858:A 0.000141131
11 *877:C *74:85 0.00177213
12 *50:8 *51:24 1.69115e-05
13 *50:8 *86:38 0.000360806
14 *50:8 *96:32 0.000338067
15 *44:16 *867:C 0
16 *44:16 *50:8 0
*RES
1 *866:X *50:8 22.425 
2 *50:8 *867:C 23.7196 
3 *50:8 *877:C 31.9964 
*END

*D_NET *51 0.01629
*CONN
*I *875:D I *D sky130_fd_sc_hd__and4_1
*I *868:B1_N I *D sky130_fd_sc_hd__o21ba_1
*I *872:C I *D sky130_fd_sc_hd__and3_1
*I *869:B I *D sky130_fd_sc_hd__and2_1
*I *870:B I *D sky130_fd_sc_hd__nor2_1
*I *867:X O *D sky130_fd_sc_hd__and3_1
*CAP
1 *875:D 0.000745797
2 *868:B1_N 8.50207e-05
3 *872:C 0.00014734
4 *869:B 0.000163979
5 *870:B 0.000125026
6 *867:X 0.000432471
7 *51:60 0.000361132
8 *51:47 0.00122326
9 *51:24 0.00217572
10 *51:10 0.00229845
11 *869:B *844:A 7.22772e-05
12 *869:B *872:B 3.14048e-05
13 *870:B *870:A 0.000185118
14 *870:B *98:12 3.97677e-05
15 *872:C *869:A 2.0954e-05
16 *872:C *926:A 0.00012401
17 *872:C *102:16 4.58194e-05
18 *875:D *875:C 1.40415e-05
19 *875:D *86:84 0.000164618
20 *51:10 *867:A 0.000378009
21 *51:10 *867:B 1.02504e-05
22 *51:10 *903:CLK 0
23 *51:10 *906:CLK 0
24 *51:10 *74:70 0.000292344
25 *51:10 *86:84 0
26 *51:10 *118:12 4.98968e-05
27 *51:24 *860:A 0.000378127
28 *51:24 *868:A1 0.000158744
29 *51:24 *86:38 0.000196566
30 *51:24 *86:84 0.000149797
31 *51:24 *88:10 4.06796e-05
32 *51:24 *103:16 3.2923e-05
33 *51:24 *103:20 0.00133656
34 *51:47 *843:B 0.000174219
35 *51:47 *844:A 4.36239e-05
36 *51:47 *852:A 0.000649002
37 *51:47 *860:A 0.000764088
38 *51:47 *868:A1 0.000375251
39 *51:47 *872:B 4.93238e-05
40 *51:47 *70:24 0.000372079
41 *51:47 *84:91 5.90251e-05
42 *51:47 *84:106 1.08847e-05
43 *51:47 *99:44 0.000153548
44 *51:60 *925:A 0
45 *51:60 *926:A 0.000385717
46 *892:D *51:47 0.000943021
47 *22:6 *875:D 4.38661e-05
48 *26:10 *51:60 0.000338351
49 *44:16 *51:24 0.000431006
50 *50:8 *51:24 1.69115e-05
*RES
1 *867:X *51:10 28.1393 
2 *51:10 *51:24 40.2321 
3 *51:24 *870:B 16.3893 
4 *51:24 *51:47 33.9821 
5 *51:47 *869:B 12.3 
6 *51:47 *51:60 13.9821 
7 *51:60 *872:C 21.0857 
8 *51:60 *868:B1_N 10.6571 
9 *51:10 *875:D 18.675 
*END

*D_NET *52 0.0164853
*CONN
*I *871:A I *D sky130_fd_sc_hd__nor2_1
*I *873:A2 I *D sky130_fd_sc_hd__o21ba_1
*I *869:X O *D sky130_fd_sc_hd__and2_1
*CAP
1 *871:A 0
2 *873:A2 0.000430664
3 *869:X 0
4 *52:37 0.00290272
5 *52:8 0.0044378
6 *52:6 0.00110441
7 *873:A2 *873:A1 0
8 *873:A2 *873:B1_N 0.000340697
9 *873:A2 *90:24 0.000113089
10 *873:A2 *102:37 0
11 *52:8 *854:A 6.22145e-05
12 *52:8 *873:B1_N 3.34366e-05
13 *52:8 *54:8 0.00278804
14 *52:8 *78:16 0
15 *52:8 *102:37 0
16 *52:37 *871:B 7.26289e-05
17 *52:37 *874:A 2.59355e-05
18 *52:37 *877:D 1.98839e-05
19 *52:37 *54:23 0.00226544
20 *52:37 *86:84 2.65105e-05
21 *905:D *52:37 0.000142856
22 *21:26 *52:8 0.000640964
23 *28:8 *873:A2 0.000186393
24 *42:14 *52:8 0.000891587
*RES
1 *869:X *52:6 13.8 
2 *52:6 *52:8 36.25 
3 *52:8 *873:A2 22.2464 
4 *52:8 *52:37 46.3036 
5 *52:37 *871:A 9.3 
*END

*D_NET *53 0.0102694
*CONN
*I *871:B I *D sky130_fd_sc_hd__nor2_1
*I *870:Y O *D sky130_fd_sc_hd__nor2_1
*CAP
1 *871:B 0.00060608
2 *870:Y 0.00194661
3 *53:14 0.00255269
4 *871:B *857:B 0.000259286
5 *871:B *861:A1 5.74309e-05
6 *871:B *874:A 5.33005e-05
7 *871:B *54:23 0.000258034
8 *871:B *86:84 0.000732681
9 *871:B *90:10 0.00061812
10 *871:B *90:22 0.000365476
11 *871:B *100:20 7.04664e-05
12 *53:14 *98:37 3.97677e-05
13 *53:14 *110:16 3.9733e-05
14 *48:37 *53:14 0.00259707
15 *52:37 *871:B 7.26289e-05
*RES
1 *870:Y *53:14 49.8357 
2 *53:14 *871:B 33.9071 
*END

*D_NET *54 0.0153384
*CONN
*I *874:B I *D sky130_fd_sc_hd__xor2_1
*I *873:B1_N I *D sky130_fd_sc_hd__o21ba_1
*I *872:X O *D sky130_fd_sc_hd__and3_1
*CAP
1 *874:B 0
2 *873:B1_N 0.000179841
3 *872:X 0
4 *54:23 0.00104435
5 *54:8 0.00214903
6 *54:6 0.000924843
7 *873:B1_N *880:C 4.56437e-05
8 *873:B1_N *57:8 0.000317602
9 *873:B1_N *90:22 6.72661e-05
10 *873:B1_N *90:24 0.00014183
11 *54:8 *844:A 0.00147759
12 *54:8 *869:A 0
13 *54:8 *872:B 4.15914e-05
14 *54:8 *880:C 0.000408182
15 *54:8 *926:A 4.25654e-05
16 *54:8 *102:16 0
17 *54:8 *111:12 0.000473544
18 *54:23 *858:A 5.98558e-05
19 *54:23 *877:B 5.33005e-05
20 *54:23 *877:D 0.000135028
21 *54:23 *74:85 0.00114034
22 *54:23 *86:84 0.000175224
23 *871:B *54:23 0.000258034
24 *873:A2 *873:B1_N 0.000340697
25 *21:26 *54:8 0.000547027
26 *28:8 *873:B1_N 0.000228136
27 *52:8 *873:B1_N 3.34366e-05
28 *52:8 *54:8 0.00278804
29 *52:37 *54:23 0.00226544
*RES
1 *872:X *54:6 13.8 
2 *54:6 *54:8 38.375 
3 *54:8 *873:B1_N 21.4786 
4 *54:8 *54:23 40.7679 
5 *54:23 *874:B 9.3 
*END

*D_NET *55 0.00416466
*CONN
*I *878:A2 I *D sky130_fd_sc_hd__o21ba_1
*I *875:X O *D sky130_fd_sc_hd__and4_1
*CAP
1 *878:A2 0
2 *875:X 0.00132979
3 *55:16 0.00132979
4 *55:16 *830:A 9.23967e-05
5 *55:16 *875:C 4.3049e-05
6 *55:16 *878:A1 7.30591e-05
7 *55:16 *878:B1_N 5.66971e-05
8 *55:16 *881:A1 0.000364371
9 *55:16 *886:B 0.000182811
10 *55:16 *91:20 5.17072e-05
11 *55:16 *91:29 0.000200231
12 *55:16 *104:10 0.000200406
13 *55:16 *116:38 0
14 *903:D *55:16 6.02454e-05
15 *911:D *55:16 0.000180111
*RES
1 *875:X *55:16 44.3 
2 *55:16 *878:A2 9.3 
*END

*D_NET *56 0.00328945
*CONN
*I *877:D I *D sky130_fd_sc_hd__and4_2
*I *876:X O *D sky130_fd_sc_hd__and4_1
*CAP
1 *877:D 0.000906716
2 *876:X 0.000906716
3 *877:D *858:A 0.00108876
4 *877:D *876:B 0.000232346
5 *877:D *81:10 0
6 *877:D *102:37 0
7 *31:10 *877:D 0
8 *52:37 *877:D 1.98839e-05
9 *54:23 *877:D 0.000135028
*RES
1 *876:X *877:D 48.7964 
*END

*D_NET *57 0.0180292
*CONN
*I *880:C I *D sky130_fd_sc_hd__nand3_2
*I *881:A2 I *D sky130_fd_sc_hd__a21o_1
*I *885:D I *D sky130_fd_sc_hd__and4_1
*I *878:B1_N I *D sky130_fd_sc_hd__o21ba_1
*I *879:B I *D sky130_fd_sc_hd__xor2_1
*I *877:X O *D sky130_fd_sc_hd__and4_2
*CAP
1 *880:C 0.000849053
2 *881:A2 0.000170179
3 *885:D 0
4 *878:B1_N 0.000103385
5 *879:B 0.000544896
6 *877:X 0
7 *57:27 0.000388994
8 *57:25 0.00143045
9 *57:8 0.00172103
10 *57:6 0.00105053
11 *878:B1_N *857:B 5.51649e-05
12 *878:B1_N *878:A1 0.00057831
13 *878:B1_N *886:B 1.65914e-05
14 *879:B *71:10 0
15 *879:B *93:29 0.000872941
16 *879:B *102:37 0
17 *880:C *880:B 0.000576491
18 *880:C *111:12 0.000454826
19 *881:A2 *857:B 0.000165833
20 *881:A2 *881:B1 0.000563315
21 *57:8 *877:B 6.53874e-05
22 *57:8 *908:CLK 0
23 *57:8 *102:37 0
24 *57:8 *111:12 0.000271951
25 *57:25 *827:A 0.000467518
26 *57:25 *850:A 0.00116506
27 *57:25 *858:B 0.000142856
28 *57:25 *908:CLK 0.000184745
29 *57:25 *80:14 0.00236528
30 *57:25 *94:23 0.000334377
31 *57:27 *830:A 7.54311e-05
32 *57:27 *857:B 0.00052379
33 *873:B1_N *880:C 4.56437e-05
34 *873:B1_N *57:8 0.000317602
35 *906:D *878:B1_N 0.000489683
36 *21:26 *880:C 0.000119987
37 *21:26 *57:27 2.11419e-05
38 *22:6 *880:C 0.000676737
39 *32:14 *881:A2 0.000172734
40 *32:14 *57:27 1.90936e-05
41 *48:26 *881:A2 0.000563315
42 *54:8 *880:C 0.000408182
43 *55:16 *878:B1_N 5.66971e-05
*RES
1 *877:X *57:6 13.8 
2 *57:6 *57:8 6.19643 
3 *57:8 *879:B 25.3 
4 *57:8 *57:25 41.9821 
5 *57:25 *57:27 7.10714 
6 *57:27 *878:B1_N 19.9964 
7 *57:27 *885:D 13.8 
8 *57:25 *881:A2 21.5143 
9 *57:6 *880:C 37.0679 
*END

*D_NET *58 0.0153277
*CONN
*I *882:A I *D sky130_fd_sc_hd__and2_1
*I *884:B I *D sky130_fd_sc_hd__xnor2_1
*I *880:Y O *D sky130_fd_sc_hd__nand3_2
*CAP
1 *882:A 0
2 *884:B 0.000624729
3 *880:Y 7.49542e-05
4 *58:33 0.00232604
5 *58:14 0.00581616
6 *58:10 0.00294035
7 *884:B *828:A1 0.00010484
8 *884:B *828:A2 0.000123932
9 *884:B *839:A1 5.16193e-05
10 *884:B *96:38 0.000126509
11 *884:B *117:16 0
12 *58:10 *93:18 0
13 *58:14 *842:A 9.83341e-05
14 *58:14 *891:CLK 0.000315076
15 *58:14 *899:CLK 0.000151179
16 *58:14 *89:8 5.24921e-05
17 *58:33 *882:B 0.00094667
18 *58:33 *915:A 5.6647e-05
19 *58:33 *110:8 0.000280534
20 *894:D *58:10 6.24558e-05
21 *28:14 *884:B 0.000311345
22 *28:14 *58:33 0.000142985
23 *33:8 *884:B 0.000578885
24 *33:8 *58:33 0.000141963
*RES
1 *880:Y *58:10 19.9429 
2 *58:10 *58:14 38.3036 
3 *58:14 *884:B 31.2821 
4 *58:14 *58:33 43.3214 
5 *58:33 *882:A 9.3 
*END

*D_NET *59 0.0034932
*CONN
*I *882:B I *D sky130_fd_sc_hd__and2_1
*I *881:X O *D sky130_fd_sc_hd__a21o_1
*CAP
1 *882:B 0.000827297
2 *881:X 0.000827297
3 *882:B *888:A 0
4 *882:B *116:38 0.000891936
5 *58:33 *882:B 0.00094667
*RES
1 *881:X *882:B 48.1179 
*END

*D_NET *60 0.00594939
*CONN
*I *883:A I *D sky130_fd_sc_hd__buf_1
*I *882:X O *D sky130_fd_sc_hd__and2_1
*CAP
1 *883:A 0.000491405
2 *882:X 0.000873138
3 *60:10 0.00136454
4 *883:A *97:27 0.000750657
5 *60:10 *846:C 0.000530906
6 *60:10 *63:10 0
7 *60:10 *73:14 0
8 *60:10 *97:27 0.00132907
9 *893:D *883:A 0.000609671
10 *34:10 *60:10 0
*RES
1 *882:X *60:10 41.8 
2 *60:10 *883:A 22.9786 
*END

*D_NET *61 0.00320875
*CONN
*I *886:B I *D sky130_fd_sc_hd__xor2_1
*I *885:X O *D sky130_fd_sc_hd__and4_1
*CAP
1 *886:B 0.00128625
2 *885:X 0.00128625
3 *886:B *878:A1 3.24049e-05
4 *878:B1_N *886:B 1.65914e-05
5 *906:D *886:B 0.000404439
6 *55:16 *886:B 0.000182811
*RES
1 *885:X *886:B 44.0464 
*END

*D_NET *62 0.00769361
*CONN
*I *825:A1 I *D sky130_fd_sc_hd__o21ba_1
*I *822:Y O *D sky130_fd_sc_hd__inv_2
*CAP
1 *825:A1 0.00140868
2 *822:Y 0.000915077
3 *62:8 0.00232376
4 *825:A1 *825:A2 0.000293676
5 *825:A1 *69:10 0.000428349
6 *62:8 *822:A 5.49544e-05
7 *62:8 *823:A 0.000224366
8 *62:8 *823:B 3.22663e-05
9 *62:8 *115:77 0.000383327
10 *32:14 *825:A1 0.00162915
*RES
1 *822:Y *62:8 30.3536 
2 *62:8 *825:A1 49.7464 
*END

*D_NET *63 0.00801046
*CONN
*I *824:A I *D sky130_fd_sc_hd__clkbuf_2
*I *823:X O *D sky130_fd_sc_hd__or3_1
*CAP
1 *824:A 0.00211776
2 *823:X 0.00142308
3 *63:10 0.00354084
4 *824:A *825:A2 6.595e-05
5 *824:A *862:A 0.000436245
6 *824:A *918:A 0.000135028
7 *824:A *99:20 2.97386e-05
8 *63:10 *822:A 0
9 *63:10 *838:C1 0.000127515
10 *914:RESET_B *824:A 7.94274e-05
11 *34:10 *63:10 0
12 *48:16 *824:A 5.48781e-05
13 *60:10 *63:10 0
*RES
1 *823:X *63:10 45.1393 
2 *63:10 *824:A 45.4429 
*END

*D_NET *64 0.00708381
*CONN
*I *829:B I *D sky130_fd_sc_hd__and3_1
*I *831:B I *D sky130_fd_sc_hd__xnor2_1
*I *827:Y O *D sky130_fd_sc_hd__nand3_1
*CAP
1 *829:B 0.000823886
2 *831:B 0.000271238
3 *827:Y 2.81958e-05
4 *64:8 0.00112332
5 *829:B *66:8 0.00107259
6 *829:B *93:29 0.00197746
7 *831:B *828:A2 4.51234e-05
8 *831:B *831:A 0.000700922
9 *831:B *886:A 0.000172285
10 *831:B *91:20 6.94441e-06
11 *831:B *114:22 8.22338e-05
12 *64:8 *114:22 6.98302e-05
13 *912:D *829:B 7.48624e-05
14 *23:18 *831:B 0.000593326
15 *23:18 *64:8 4.15914e-05
*RES
1 *827:Y *64:8 14.8357 
2 *64:8 *831:B 23.6571 
3 *64:8 *829:B 39.3536 
*END

*D_NET *65 0.000618063
*CONN
*I *829:C I *D sky130_fd_sc_hd__and3_1
*I *828:X O *D sky130_fd_sc_hd__a21o_1
*CAP
1 *829:C 0.000162922
2 *828:X 0.000162922
3 *829:C *832:B1 8.68619e-05
4 *829:C *67:10 0.000167016
5 *829:C *93:29 1.95435e-05
6 *829:C *96:38 1.29901e-05
7 *829:C *108:12 5.80706e-06
*RES
1 *828:X *829:C 30.5821 
*END

*D_NET *66 0.00716537
*CONN
*I *830:A I *D sky130_fd_sc_hd__buf_1
*I *829:X O *D sky130_fd_sc_hd__and3_1
*CAP
1 *830:A 0.000610099
2 *829:X 0.00161455
3 *66:8 0.00222465
4 *830:A *875:C 0.000266479
5 *830:A *886:A 2.72055e-05
6 *830:A *114:20 0.000302518
7 *830:A *114:22 0.000287837
8 *829:B *66:8 0.00107259
9 *912:D *66:8 9.84673e-05
10 *21:26 *830:A 8.23597e-06
11 *32:14 *830:A 0.00048491
12 *55:16 *830:A 9.23967e-05
13 *57:27 *830:A 7.54311e-05
*RES
1 *829:X *66:8 35.2821 
2 *66:8 *830:A 31.9964 
*END

*D_NET *67 0.0139226
*CONN
*I *834:B1 I *D sky130_fd_sc_hd__o31ai_1
*I *833:A I *D sky130_fd_sc_hd__inv_2
*I *839:B1 I *D sky130_fd_sc_hd__o21ai_1
*I *832:Y O *D sky130_fd_sc_hd__o21ai_2
*CAP
1 *834:B1 0
2 *833:A 0.000152103
3 *839:B1 6.80382e-05
4 *832:Y 0.000466599
5 *67:29 0.000871044
6 *67:23 0.00187951
7 *67:10 0.00169521
8 *833:A *112:6 0.000250578
9 *833:A *117:64 0.000157838
10 *833:A *117:71 0.000338546
11 *839:B1 *839:A1 0.00049041
12 *839:B1 *839:A2 0.00049041
13 *67:10 *832:A2 5.02276e-05
14 *67:10 *832:B1 7.93653e-05
15 *67:10 *876:D 1.4796e-05
16 *67:10 *108:12 9.79988e-05
17 *67:10 *117:16 5.26699e-05
18 *67:10 *117:18 0.000118548
19 *67:23 *70:24 0
20 *67:23 *108:12 0.000556232
21 *67:23 *108:36 0.000966844
22 *67:23 *117:16 0.000837702
23 *67:23 *117:53 4.97918e-05
24 *67:29 *96:8 0.000785322
25 *67:29 *112:6 0.00213383
26 *67:29 *117:64 0.00102768
27 *67:29 *118:61 0.000103646
28 *829:C *67:10 0.000167016
29 *12:23 *67:23 2.06112e-05
*RES
1 *832:Y *67:10 24.4786 
2 *67:10 *839:B1 18.4429 
3 *67:10 *67:23 38.625 
4 *67:23 *67:29 27.7857 
5 *67:29 *833:A 14.8 
6 *67:29 *834:B1 9.3 
*END

*D_NET *68 0.000885425
*CONN
*I *836:A I *D sky130_fd_sc_hd__clkbuf_1
*I *835:X O *D sky130_fd_sc_hd__or3_1
*CAP
1 *836:A 0.000183295
2 *835:X 0.000183295
3 *836:A *70:24 4.26814e-05
4 *836:A *81:38 5.50052e-05
5 *836:A *100:24 0.000356682
6 *33:8 *836:A 6.44649e-05
*RES
1 *835:X *836:A 32.6536 
*END

*D_NET *69 0.0153905
*CONN
*I *838:A2 I *D sky130_fd_sc_hd__a211o_1
*I *839:A2 I *D sky130_fd_sc_hd__o21ai_1
*I *837:Y O *D sky130_fd_sc_hd__inv_2
*CAP
1 *838:A2 0.000312069
2 *839:A2 0.000713247
3 *837:Y 0.00129807
4 *69:22 0.00180533
5 *69:10 0.00270222
6 *838:A2 *113:6 0.000703588
7 *839:A2 *839:A1 0.000134549
8 *839:A2 *867:A 0.000227911
9 *839:A2 *90:22 0.000868625
10 *69:10 *922:A 0.000294083
11 *69:10 *85:123 0
12 *69:10 *100:20 0.000536866
13 *69:22 *875:A 0.000222878
14 *69:22 *904:CLK 1.39841e-05
15 *69:22 *85:88 5.38242e-05
16 *69:22 *85:99 4.35131e-05
17 *69:22 *90:8 9.60875e-05
18 *69:22 *90:10 0.000125554
19 *69:22 *90:22 7.80714e-06
20 *69:22 *99:20 0.00208881
21 *69:22 *100:20 0.000153047
22 *825:A1 *69:10 0.000428349
23 *839:B1 *839:A2 0.00049041
24 *867:C *839:A2 0.000206253
25 *28:8 *839:A2 0.00079122
26 *32:14 *69:10 0.00025696
27 *32:14 *69:22 7.92879e-05
28 *48:16 *69:22 0.000170279
29 *48:26 *69:22 0.000565637
*RES
1 *837:Y *69:10 42.3536 
2 *69:10 *69:22 45.8929 
3 *69:22 *839:A2 32.0143 
4 *69:10 *838:A2 21.3179 
*END

*D_NET *70 0.0119697
*CONN
*I *845:B I *D sky130_fd_sc_hd__xnor2_1
*I *843:A I *D sky130_fd_sc_hd__and2_1
*I *841:Y O *D sky130_fd_sc_hd__nand2_1
*CAP
1 *845:B 0.00135835
2 *843:A 0
3 *841:Y 1.55111e-05
4 *70:24 0.0014769
5 *70:6 0.00285076
6 *845:B *841:A 6.65708e-05
7 *845:B *845:A 5.20751e-05
8 *845:B *847:A 0.000948692
9 *845:B *918:A 3.54449e-05
10 *845:B *74:6 5.33005e-05
11 *845:B *74:12 0.000163455
12 *845:B *114:18 0.000402747
13 *70:24 *835:A 2.21972e-05
14 *70:24 *835:C 0.000550008
15 *70:24 *841:B 1.33143e-05
16 *70:24 *843:B 5.33005e-05
17 *70:24 *872:B 0.000394965
18 *70:24 *887:A 5.49995e-05
19 *70:24 *74:12 1.24368e-05
20 *70:24 *96:32 7.19514e-05
21 *70:24 *98:12 8.22306e-05
22 *70:24 *99:44 0.000333988
23 *70:24 *108:36 0
24 *70:24 *117:16 0.00091812
25 *70:24 *117:53 0.000148903
26 *836:A *70:24 4.26814e-05
27 *28:14 *70:24 0.000511908
28 *33:8 *70:24 0
29 *36:12 *845:B 0.00086439
30 *44:16 *70:24 9.84673e-05
31 *51:47 *70:24 0.000372079
32 *67:23 *70:24 0
*RES
1 *841:Y *70:6 9.72857 
2 *70:6 *70:24 49.6964 
3 *70:24 *843:A 9.3 
4 *70:6 *845:B 38.1929 
*END

*D_NET *71 0.011341
*CONN
*I *843:B I *D sky130_fd_sc_hd__and2_1
*I *842:X O *D sky130_fd_sc_hd__or2_1
*CAP
1 *843:B 5.22191e-05
2 *842:X 0.000776613
3 *71:10 0.00219194
4 *71:8 0.00291633
5 *843:B *872:B 2.1692e-05
6 *71:8 *876:A 0.000834356
7 *71:8 *876:B 5.66971e-05
8 *71:8 *876:D 6.42916e-05
9 *71:10 *876:A 0
10 *71:10 *908:CLK 0
11 *71:10 *925:A 0.000877453
12 *71:10 *84:91 0
13 *71:10 *84:106 0
14 *71:10 *86:27 0
15 *71:10 *89:21 0
16 *71:10 *110:16 0.00128833
17 *879:B *71:10 0
18 *40:14 *71:10 0.00203355
19 *51:47 *843:B 0.000174219
20 *70:24 *843:B 5.33005e-05
*RES
1 *842:X *71:8 29.9429 
2 *71:8 *71:10 50.8214 
3 *71:10 *843:B 15.5857 
*END

*D_NET *72 0.00436959
*CONN
*I *844:A I *D sky130_fd_sc_hd__clkbuf_1
*I *843:X O *D sky130_fd_sc_hd__and2_1
*CAP
1 *844:A 0.000611251
2 *843:X 0.000611251
3 *844:A *926:A 0.000329436
4 *844:A *111:12 0.000842749
5 *869:B *844:A 7.22772e-05
6 *21:26 *844:A 0.000381414
7 *51:47 *844:A 4.36239e-05
8 *54:8 *844:A 0.00147759
*RES
1 *843:X *844:A 48.725 
*END

*D_NET *73 0.00574393
*CONN
*I *847:A I *D sky130_fd_sc_hd__buf_2
*I *846:X O *D sky130_fd_sc_hd__and4_1
*CAP
1 *847:A 0.00103457
2 *846:X 0.00055943
3 *73:14 0.001594
4 *847:A *918:A 5.65955e-05
5 *847:A *114:18 0.00040105
6 *73:14 *846:D 5.30637e-06
7 *73:14 *86:84 2.32625e-05
8 *73:14 *98:37 0.000519695
9 *73:14 *115:51 0.00041624
10 *845:B *847:A 0.000948692
11 *900:D *73:14 0
12 *905:D *73:14 5.52238e-05
13 *34:10 *73:14 0.000129856
14 *60:10 *73:14 0
*RES
1 *846:X *73:14 34.9786 
2 *73:14 *847:A 30.7821 
*END

*D_NET *74 0.0298461
*CONN
*I *877:A I *D sky130_fd_sc_hd__and4_2
*I *858:A I *D sky130_fd_sc_hd__and2_2
*I *867:A I *D sky130_fd_sc_hd__and3_1
*I *849:A_N I *D sky130_fd_sc_hd__and2b_1
*I *851:B I *D sky130_fd_sc_hd__xor2_1
*I *852:C I *D sky130_fd_sc_hd__and3_1
*I *853:A2 I *D sky130_fd_sc_hd__a21oi_1
*I *847:X O *D sky130_fd_sc_hd__buf_2
*CAP
1 *877:A 0
2 *858:A 0.000913124
3 *867:A 0.000203506
4 *849:A_N 0.000694066
5 *851:B 0.00035682
6 *852:C 0
7 *853:A2 0.00065483
8 *847:X 3.54071e-05
9 *74:85 0.00149464
10 *74:70 0.00122359
11 *74:44 0.00106413
12 *74:16 0.00196548
13 *74:12 0.00177512
14 *74:6 0.000925189
15 *849:A_N *848:A2 1.21837e-05
16 *849:A_N *848:A3 0.000126416
17 *849:A_N *849:B 0.00086973
18 *849:A_N *76:16 5.49544e-05
19 *849:A_N *76:20 0.000537262
20 *849:A_N *95:10 4.51945e-05
21 *849:A_N *105:29 0.000148489
22 *849:A_N *105:49 0.000403621
23 *849:A_N *115:77 0.000146022
24 *851:B *90:65 4.77415e-05
25 *851:B *114:70 0.000212457
26 *853:A2 *853:A1 0.00100089
27 *853:A2 *853:B1 0.000914857
28 *853:A2 *77:6 0.000690107
29 *853:A2 *77:10 0.000224583
30 *853:A2 *102:16 0.000640961
31 *853:A2 *117:12 0.000965658
32 *858:A *858:B 0.000623245
33 *858:A *877:B 5.33005e-05
34 *858:A *81:10 0.000432328
35 *858:A *102:37 0
36 *867:A *118:12 0.000379724
37 *74:12 *76:20 0.000959339
38 *74:12 *86:38 0
39 *74:12 *105:49 0.00087399
40 *74:16 *852:A 0.000140601
41 *74:16 *114:70 8.08221e-05
42 *74:16 *117:12 0.000385843
43 *74:44 *76:20 5.66157e-05
44 *74:44 *105:49 4.90803e-05
45 *74:70 *86:84 0
46 *74:70 *87:20 0.00014261
47 *74:70 *95:10 8.57395e-05
48 *74:70 *118:12 0.000705477
49 *74:70 *118:44 0.00032691
50 *839:A2 *867:A 0.000227911
51 *845:B *74:6 5.33005e-05
52 *845:B *74:12 0.000163455
53 *867:C *867:A 0.000126946
54 *877:C *858:A 0.000141131
55 *877:C *74:85 0.00177213
56 *877:D *858:A 0.00108876
57 *25:12 *853:A2 0.000648602
58 *44:16 *74:12 9.15842e-06
59 *49:16 *849:A_N 8.90236e-05
60 *51:10 *867:A 0.000378009
61 *51:10 *74:70 0.000292344
62 *54:23 *858:A 5.98558e-05
63 *54:23 *74:85 0.00114034
64 *70:24 *74:12 1.24368e-05
*RES
1 *847:X *74:6 9.83571 
2 *74:6 *74:12 18.5357 
3 *74:12 *74:16 20.7143 
4 *74:16 *853:A2 47.0857 
5 *74:16 *852:C 9.3 
6 *74:12 *74:44 0.732143 
7 *74:44 *851:B 20.5143 
8 *74:44 *849:A_N 35.6393 
9 *74:6 *74:70 17.9821 
10 *74:70 *867:A 20.9607 
11 *74:70 *74:85 25.1607 
12 *74:85 *858:A 42.7286 
13 *74:85 *877:A 9.3 
*END

*D_NET *75 0.00267806
*CONN
*I *849:B I *D sky130_fd_sc_hd__and2b_1
*I *848:X O *D sky130_fd_sc_hd__a31o_1
*CAP
1 *849:B 0.000519792
2 *848:X 0.000519792
3 *849:B *76:16 0
4 *849:B *87:10 0.000141591
5 *849:B *95:10 0.000266783
6 *849:B *115:77 0.000360375
7 *849:A_N *849:B 0.00086973
*RES
1 *848:X *849:B 42.975 
*END

*D_NET *76 0.0161391
*CONN
*I *850:A I *D sky130_fd_sc_hd__buf_1
*I *849:X O *D sky130_fd_sc_hd__and2b_1
*CAP
1 *850:A 0.00114777
2 *849:X 0.000822362
3 *76:20 0.00229747
4 *76:16 0.00197207
5 *850:A *827:A 0.00133827
6 *850:A *115:14 0.00103745
7 *850:A *115:18 1.54142e-05
8 *76:16 *890:A 2.59355e-05
9 *76:16 *87:10 0.000746907
10 *76:16 *90:65 0
11 *76:16 *105:33 2.42516e-05
12 *76:16 *115:77 7.96867e-05
13 *76:20 *866:C 0.000144732
14 *76:20 *95:10 0.00313197
15 *76:20 *96:38 0
16 *849:A_N *76:16 5.49544e-05
17 *849:A_N *76:20 0.000537262
18 *849:B *76:16 0
19 *867:C *76:20 0
20 *914:RESET_B *76:16 2.51343e-06
21 *44:16 *76:20 0.000579031
22 *57:25 *850:A 0.00116506
23 *74:12 *76:20 0.000959339
24 *74:44 *76:20 5.66157e-05
*RES
1 *849:X *76:16 39.1214 
2 *76:16 *76:20 45.3036 
3 *76:20 *850:A 39.0143 
*END

*D_NET *77 0.00854035
*CONN
*I *854:A I *D sky130_fd_sc_hd__nor2_1
*I *856:B I *D sky130_fd_sc_hd__and2_1
*I *855:B I *D sky130_fd_sc_hd__xor2_1
*I *852:X O *D sky130_fd_sc_hd__and3_1
*CAP
1 *854:A 0.000322896
2 *856:B 0.000310175
3 *855:B 0.000243989
4 *852:X 0.000481423
5 *77:10 0.00129976
6 *77:6 0.00154992
7 *854:A *78:16 0.00032039
8 *855:B *855:A 0.000531403
9 *855:B *856:A 7.80714e-06
10 *855:B *859:A2 0
11 *855:B *928:A 0.000101545
12 *855:B *101:10 9.69119e-06
13 *855:B *113:10 2.89016e-05
14 *856:B *856:A 5.49995e-05
15 *856:B *859:A2 4.84073e-05
16 *856:B *928:A 0.000426863
17 *77:10 *117:12 0.000472066
18 *853:A2 *77:6 0.000690107
19 *853:A2 *77:10 0.000224583
20 *21:26 *854:A 0.000114617
21 *40:8 *855:B 0.000531653
22 *42:14 *854:A 0.000706937
23 *52:8 *854:A 6.22145e-05
*RES
1 *852:X *77:6 15.9964 
2 *77:6 *77:10 14.8929 
3 *77:10 *855:B 22.0321 
4 *77:10 *856:B 21.1571 
5 *77:6 *854:A 29.6571 
*END

*D_NET *78 0.00500725
*CONN
*I *854:B I *D sky130_fd_sc_hd__nor2_1
*I *853:Y O *D sky130_fd_sc_hd__a21oi_1
*CAP
1 *854:B 0
2 *853:Y 0.00106286
3 *78:16 0.00106286
4 *78:16 *853:B1 0.000996585
5 *78:16 *102:16 0.00150786
6 *78:16 *102:37 5.66971e-05
7 *854:A *78:16 0.00032039
8 *52:8 *78:16 0
*RES
1 *853:Y *78:16 48.0857 
2 *78:16 *854:B 9.3 
*END

*D_NET *79 0.00258294
*CONN
*I *859:A2 I *D sky130_fd_sc_hd__o21ba_1
*I *856:X O *D sky130_fd_sc_hd__and2_1
*CAP
1 *859:A2 0.00116463
2 *856:X 0.00116463
3 *859:A2 *859:A1 5.49995e-05
4 *859:A2 *81:23 0
5 *859:A2 *101:10 0
6 *855:B *859:A2 0
7 *856:B *859:A2 4.84073e-05
8 *31:10 *859:A2 0.000150264
9 *41:12 *859:A2 0
*RES
1 *856:X *859:A2 46.9393 
*END

*D_NET *80 0.0125311
*CONN
*I *867:B I *D sky130_fd_sc_hd__and3_1
*I *877:B I *D sky130_fd_sc_hd__and4_2
*I *858:B I *D sky130_fd_sc_hd__and2_2
*I *857:X O *D sky130_fd_sc_hd__and4_1
*CAP
1 *867:B 9.72145e-05
2 *877:B 0.000208237
3 *858:B 0.00113157
4 *857:X 0.000746477
5 *80:14 0.00291802
6 *80:10 0.0024219
7 *858:B *873:A1 5.52238e-05
8 *858:B *876:B 0
9 *858:B *908:CLK 0.000163369
10 *858:B *81:10 2.27766e-05
11 *858:B *90:24 0.000216121
12 *858:B *102:37 0.000101545
13 *867:B *90:22 5.49544e-05
14 *867:B *118:12 1.87097e-05
15 *877:B *908:CLK 0.000335208
16 *877:B *84:18 0.000187726
17 *877:B *111:12 5.84171e-05
18 *80:10 *832:A1 6.94579e-05
19 *80:10 *857:D 6.04075e-05
20 *80:10 *906:CLK 0
21 *80:10 *118:12 0.000129034
22 *858:A *858:B 0.000623245
23 *858:A *877:B 5.33005e-05
24 *902:D *877:B 0.000221163
25 *51:10 *867:B 1.02504e-05
26 *54:23 *877:B 5.33005e-05
27 *57:8 *877:B 6.53874e-05
28 *57:25 *858:B 0.000142856
29 *57:25 *80:14 0.00236528
*RES
1 *857:X *80:10 25.8179 
2 *80:10 *80:14 27.2143 
3 *80:14 *858:B 39.1036 
4 *80:14 *877:B 25.6393 
5 *80:10 *867:B 15.3714 
*END

*D_NET *81 0.0196457
*CONN
*I *861:A2 I *D sky130_fd_sc_hd__a21oi_1
*I *862:C I *D sky130_fd_sc_hd__and3_1
*I *865:D I *D sky130_fd_sc_hd__and4_1
*I *860:B I *D sky130_fd_sc_hd__xor2_1
*I *859:B1_N I *D sky130_fd_sc_hd__o21ba_1
*I *858:X O *D sky130_fd_sc_hd__and2_2
*CAP
1 *861:A2 0.00126947
2 *862:C 0.00019427
3 *865:D 0
4 *860:B 0
5 *859:B1_N 0
6 *858:X 0.0015185
7 *81:55 0.00257261
8 *81:38 0.00229696
9 *81:23 0.00195696
10 *81:10 0.00228737
11 *861:A2 *825:A2 8.36038e-05
12 *861:A2 *888:A 0.000191297
13 *862:C *825:A2 1.65169e-05
14 *862:C *862:A 5.22534e-05
15 *81:23 *110:16 9.58126e-05
16 *81:23 *113:10 0.000799025
17 *81:38 *848:B1 0.000275222
18 *81:38 *860:A 9.58126e-05
19 *81:38 *100:24 0.000188279
20 *81:38 *113:10 0.000613452
21 *81:55 *865:C 5.50052e-05
22 *81:55 *85:99 0.000189629
23 *81:55 *90:10 0.000487729
24 *81:55 *90:65 0.000290986
25 *81:55 *100:20 0.000931574
26 *81:55 *100:24 3.5097e-05
27 *836:A *81:38 5.50052e-05
28 *858:A *81:10 0.000432328
29 *858:B *81:10 2.27766e-05
30 *859:A2 *81:23 0
31 *877:D *81:10 0
32 *893:D *81:55 0.000208999
33 *31:10 *81:10 0.00051975
34 *31:10 *81:23 4.91281e-05
35 *33:8 *81:38 0
36 *34:10 *861:A2 0
37 *36:12 *861:A2 5.94811e-05
38 *40:8 *81:23 0.00133655
39 *41:12 *81:23 0.000388124
40 *42:14 *81:23 6.2127e-05
41 *48:16 *862:C 1.39726e-05
*RES
1 *858:X *81:10 41.9071 
2 *81:10 *859:B1_N 13.8 
3 *81:10 *81:23 29.3571 
4 *81:23 *860:B 9.3 
5 *81:23 *81:38 32.375 
6 *81:38 *865:D 9.3 
7 *81:38 *81:55 33.4107 
8 *81:55 *862:C 11.55 
9 *81:55 *861:A2 35.6036 
*END

*D_NET *82 0.00438579
*CONN
*I *863:A I *D sky130_fd_sc_hd__nor2_1
*I *861:Y O *D sky130_fd_sc_hd__a21oi_1
*CAP
1 *863:A 0.000671281
2 *861:Y 0.000671281
3 *863:A *888:A 0.001079
4 *863:A *905:CLK 0.000176234
5 *863:A *85:23 0.000548749
6 *863:A *85:25 0.00035231
7 *900:D *863:A 0.000143375
8 *48:26 *863:A 0.000743562
*RES
1 *861:Y *863:A 49.7429 
*END

*D_NET *83 0.00357316
*CONN
*I *918:A I *D sky130_fd_sc_hd__clkbuf_16
*I *917:A I *D sky130_fd_sc_hd__clkbuf_16
*I *916:X O *D sky130_fd_sc_hd__clkbuf_16
*CAP
1 *918:A 0.000523737
2 *917:A 0.000754511
3 *916:X 0
4 *83:4 0.00127825
5 *917:A *89:46 5.30637e-06
6 *917:A *108:6 0.000368199
7 *917:A *108:12 5.33433e-05
8 *918:A *825:A2 1.40034e-05
9 *918:A *841:A 1.33343e-05
10 *918:A *87:20 0.000102053
11 *918:A *108:6 0.000132879
12 *918:A *118:44 0.000100474
13 *824:A *918:A 0.000135028
14 *845:B *918:A 3.54449e-05
15 *847:A *918:A 5.65955e-05
*RES
1 *916:X *83:4 9.3 
2 *83:4 *917:A 19.3 
3 *83:4 *918:A 26.05 
*END

*D_NET *84 0.0190219
*CONN
*I *901:CLK I *D sky130_fd_sc_hd__dfxtp_1
*I *898:CLK I *D sky130_fd_sc_hd__dfxtp_1
*I *892:CLK I *D sky130_fd_sc_hd__dfxtp_1
*I *907:CLK I *D sky130_fd_sc_hd__dfxtp_1
*I *894:CLK I *D sky130_fd_sc_hd__dfxtp_1
*I *919:A I *D sky130_fd_sc_hd__clkinv_1
*I *891:CLK I *D sky130_fd_sc_hd__dfxtp_2
*I *899:CLK I *D sky130_fd_sc_hd__dfxtp_1
*I *902:CLK I *D sky130_fd_sc_hd__dfxtp_1
*I *908:CLK I *D sky130_fd_sc_hd__dfxtp_1
*I *917:X O *D sky130_fd_sc_hd__clkbuf_16
*CAP
1 *901:CLK 0
2 *898:CLK 0.000287794
3 *892:CLK 0
4 *907:CLK 0
5 *894:CLK 0.000499364
6 *919:A 0
7 *891:CLK 0.000248339
8 *899:CLK 0.000182596
9 *902:CLK 2.55173e-05
10 *908:CLK 0.000494406
11 *917:X 0
12 *84:106 0.00157483
13 *84:91 0.00207277
14 *84:65 0.00149638
15 *84:40 0.000430935
16 *84:18 0.000754753
17 *84:16 0.000759866
18 *84:12 0.000617882
19 *84:10 0.00127317
20 *84:4 0.000969039
21 *891:CLK *842:A 8.61499e-05
22 *891:CLK *89:8 0.000156659
23 *891:CLK *103:16 0.000434135
24 *898:CLK *927:A 0
25 *899:CLK *842:A 0.000236126
26 *908:CLK *94:23 0.000246963
27 *84:16 *103:16 0
28 *84:91 *852:A 0.000216342
29 *84:91 *860:A 0.000526832
30 *84:91 *110:16 0
31 *84:106 *852:A 0.000432981
32 *84:106 *925:A 0
33 *84:106 *87:10 3.55937e-05
34 *84:106 *99:44 9.21227e-05
35 *858:B *908:CLK 0.000163369
36 *877:B *908:CLK 0.000335208
37 *877:B *84:18 0.000187726
38 *891:D *891:CLK 1.64343e-05
39 *892:D *84:10 0.000228514
40 *892:D *84:65 5.33005e-05
41 *892:D *84:91 0.000382938
42 *894:D *894:CLK 0.000189786
43 *901:D *898:CLK 0.000448847
44 *901:D *84:106 0.000117307
45 *902:D *902:CLK 5.49544e-05
46 *902:D *84:10 4.66511e-05
47 *902:D *84:12 0.000164284
48 *902:D *84:16 0.00100476
49 *902:D *84:18 7.79428e-05
50 *907:D *84:65 0.00025663
51 *908:D *908:CLK 0.0001399
52 *913:D *894:CLK 8.47986e-05
53 *25:12 *898:CLK 0.000179656
54 *40:14 *84:12 0
55 *40:14 *84:16 0
56 *42:14 *899:CLK 1.64343e-05
57 *51:47 *84:91 5.90251e-05
58 *51:47 *84:106 1.08847e-05
59 *57:8 *908:CLK 0
60 *57:25 *908:CLK 0.000184745
61 *58:14 *891:CLK 0.000315076
62 *58:14 *899:CLK 0.000151179
63 *71:10 *908:CLK 0
64 *71:10 *84:91 0
65 *71:10 *84:106 0
*RES
1 *917:X *84:4 9.3 
2 *84:4 *84:10 7.41071 
3 *84:10 *84:12 2.25 
4 *84:12 *84:16 13.4107 
5 *84:16 *84:18 4.67857 
6 *84:18 *908:CLK 26.3 
7 *84:18 *902:CLK 14.3357 
8 *84:16 *84:40 4.5 
9 *84:40 *899:CLK 13.9429 
10 *84:40 *891:CLK 18.05 
11 *84:12 *919:A 13.8 
12 *84:10 *84:65 20.6429 
13 *84:65 *894:CLK 26.8536 
14 *84:65 *907:CLK 9.3 
15 *84:4 *84:91 19.6786 
16 *84:91 *892:CLK 13.8 
17 *84:91 *84:106 27.75 
18 *84:106 *898:CLK 25.4964 
19 *84:106 *901:CLK 9.3 
*END

*D_NET *85 0.025464
*CONN
*I *910:CLK I *D sky130_fd_sc_hd__dfxtp_2
*I *909:CLK I *D sky130_fd_sc_hd__dfxtp_1
*I *895:CLK I *D sky130_fd_sc_hd__dfxtp_1
*I *893:CLK I *D sky130_fd_sc_hd__dfxtp_1
*I *904:CLK I *D sky130_fd_sc_hd__dfxtp_1
*I *900:CLK I *D sky130_fd_sc_hd__dfxtp_1
*I *903:CLK I *D sky130_fd_sc_hd__dfxtp_1
*I *906:CLK I *D sky130_fd_sc_hd__dfxtp_1
*I *897:CLK I *D sky130_fd_sc_hd__dfxtp_1
*I *905:CLK I *D sky130_fd_sc_hd__dfxtp_1
*I *896:CLK I *D sky130_fd_sc_hd__dfxtp_1
*I *918:X O *D sky130_fd_sc_hd__clkbuf_16
*CAP
1 *910:CLK 0.00100271
2 *909:CLK 0.000972638
3 *895:CLK 0.000338125
4 *893:CLK 0
5 *904:CLK 0.000396198
6 *900:CLK 0
7 *903:CLK 0.000328298
8 *906:CLK 0.000698775
9 *897:CLK 0.000449695
10 *905:CLK 0.000311699
11 *896:CLK 0
12 *918:X 0
13 *85:123 0.00224009
14 *85:108 0.000711878
15 *85:99 0.000447497
16 *85:88 0.00105238
17 *85:53 0.00102707
18 *85:40 0.00137799
19 *85:25 0.00136904
20 *85:23 0.000422589
21 *85:12 0.00061932
22 *85:6 0.000643479
23 *895:CLK *99:8 5.33005e-05
24 *897:CLK *101:8 0.000118418
25 *903:CLK *86:84 0.000121573
26 *903:CLK *99:20 0
27 *904:CLK *90:8 2.89016e-05
28 *905:CLK *888:A 0.000128977
29 *905:CLK *91:8 5.93268e-05
30 *905:CLK *116:14 0.00020455
31 *906:CLK *857:C 0.000854001
32 *906:CLK *878:A1 0.00052926
33 *906:CLK *99:20 0
34 *909:CLK *95:8 1.07719e-05
35 *909:CLK *105:29 0.00012544
36 *85:12 *98:37 0.000718523
37 *85:12 *100:20 0.000196649
38 *85:23 *888:A 0.000106576
39 *85:23 *98:37 3.2033e-05
40 *85:40 *911:CLK 9.90431e-05
41 *85:88 *90:8 2.59355e-05
42 *85:88 *100:20 0.000568073
43 *85:99 *90:10 5.66157e-05
44 *85:99 *90:65 0.000281736
45 *85:99 *99:14 0.000348043
46 *85:99 *99:20 9.198e-05
47 *85:108 *99:14 0.000211928
48 *85:123 *90:65 0
49 *85:123 *99:14 2.22419e-05
50 *85:123 *99:44 7.58841e-05
51 *863:A *905:CLK 0.000176234
52 *863:A *85:23 0.000548749
53 *863:A *85:25 0.00035231
54 *895:D *895:CLK 1.64343e-05
55 *903:D *903:CLK 0.000139202
56 *906:D *906:CLK 0.000527562
57 *909:D *909:CLK 8.95186e-05
58 *910:D *910:CLK 8.95121e-05
59 *911:RESET_B *85:40 0.000220162
60 *912:RESET_B *905:CLK 8.50152e-05
61 *914:RESET_B *895:CLK 0.000226061
62 *28:14 *904:CLK 0.000127114
63 *32:14 *85:12 9.86588e-05
64 *32:14 *85:88 0.000303562
65 *34:10 *905:CLK 0.000283153
66 *34:10 *85:23 0.000406607
67 *34:10 *85:25 0.000186372
68 *39:12 *85:12 0.000958169
69 *40:14 *897:CLK 0.000127067
70 *44:16 *897:CLK 0.000383948
71 *44:16 *85:40 0.000338359
72 *51:10 *903:CLK 0
73 *51:10 *906:CLK 0
74 *69:10 *85:123 0
75 *69:22 *904:CLK 1.39841e-05
76 *69:22 *85:88 5.38242e-05
77 *69:22 *85:99 4.35131e-05
78 *80:10 *906:CLK 0
79 *81:55 *85:99 0.000189629
*RES
1 *918:X *85:6 13.8 
2 *85:6 *85:12 17.4464 
3 *85:12 *896:CLK 9.3 
4 *85:12 *85:23 15.2857 
5 *85:23 *85:25 4.67857 
6 *85:25 *905:CLK 23.3893 
7 *85:25 *85:40 21.4643 
8 *85:40 *897:CLK 19.0143 
9 *85:40 *85:53 4.5 
10 *85:53 *906:CLK 31.1214 
11 *85:53 *903:CLK 19.8357 
12 *85:23 *900:CLK 13.8 
13 *85:6 *85:88 14.0893 
14 *85:88 *904:CLK 15.9964 
15 *85:88 *85:99 14.6429 
16 *85:99 *893:CLK 13.8 
17 *85:99 *85:108 2.85714 
18 *85:108 *895:CLK 19.6929 
19 *85:108 *85:123 9.48214 
20 *85:123 *909:CLK 24.6393 
21 *85:123 *910:CLK 24.2286 
*END

*D_NET *86 0.0212003
*CONN
*I *846:A I *D sky130_fd_sc_hd__and4_1
*I *848:A1 I *D sky130_fd_sc_hd__a31o_1
*I *841:A I *D sky130_fd_sc_hd__nand2_1
*I *920:A I *D sky130_fd_sc_hd__dlygate4sd3_1
*I *842:A I *D sky130_fd_sc_hd__or2_1
*I *891:Q O *D sky130_fd_sc_hd__dfxtp_2
*CAP
1 *846:A 0
2 *848:A1 0.000702774
3 *841:A 0.00034097
4 *920:A 0
5 *842:A 0.00179401
6 *891:Q 0
7 *86:84 0.00229658
8 *86:38 0.00139951
9 *86:34 0.00287241
10 *86:27 0.000757292
11 *86:4 0.00233124
12 *841:A *887:A 0.00016362
13 *841:A *888:A 0.000216576
14 *841:A *87:20 2.06178e-05
15 *841:A *118:44 2.06178e-05
16 *842:A *842:B 6.66813e-05
17 *842:A *880:B 0.000409815
18 *842:A *103:16 9.58126e-05
19 *848:A1 *848:A2 7.42082e-05
20 *848:A1 *848:B1 0.00108499
21 *848:A1 *887:A 1.90936e-05
22 *848:A1 *96:22 0.000858885
23 *848:A1 *105:49 7.58484e-06
24 *86:27 *876:A 8.6229e-06
25 *86:27 *89:21 0.000229608
26 *86:27 *103:16 0.000269217
27 *86:34 *840:A 0.000442635
28 *86:38 *848:B1 7.79135e-05
29 *86:38 *96:32 6.51849e-05
30 *86:84 *120:DIODE 2.44318e-05
31 *86:84 *846:C 9.58126e-05
32 *86:84 *846:D 9.83442e-05
33 *86:84 *99:20 0
34 *845:B *841:A 6.65708e-05
35 *871:B *86:84 0.000732681
36 *875:D *86:84 0.000164618
37 *891:CLK *842:A 8.61499e-05
38 *891:D *86:27 0.000170964
39 *891:D *86:34 0.000409579
40 *899:CLK *842:A 0.000236126
41 *903:CLK *86:84 0.000121573
42 *905:D *86:84 6.6699e-05
43 *918:A *841:A 1.33343e-05
44 *22:6 *86:27 0.000207299
45 *22:6 *86:34 0.000132251
46 *22:6 *86:84 0.000236539
47 *31:10 *842:A 0.000480922
48 *42:14 *842:A 1.76204e-05
49 *44:16 *86:38 9.34539e-05
50 *49:16 *848:A1 8.83295e-05
51 *50:8 *86:38 0.000360806
52 *51:10 *86:84 0
53 *51:24 *86:38 0.000196566
54 *51:24 *86:84 0.000149797
55 *52:37 *86:84 2.65105e-05
56 *54:23 *86:84 0.000175224
57 *58:14 *842:A 9.83341e-05
58 *71:10 *86:27 0
59 *73:14 *86:84 2.32625e-05
60 *74:12 *86:38 0
61 *74:70 *86:84 0
*RES
1 *891:Q *86:4 9.3 
2 *86:4 *842:A 49.5321 
3 *86:4 *86:27 20.2143 
4 *86:27 *920:A 9.3 
5 *86:27 *86:34 7.92857 
6 *86:34 *86:38 14.1875 
7 *86:38 *841:A 23.2703 
8 *86:38 *848:A1 35.4161 
9 *86:34 *86:84 42.9107 
10 *86:84 *846:A 9.3 
*END

*D_NET *87 0.0158811
*CONN
*I *865:C I *D sky130_fd_sc_hd__and4_1
*I *866:C I *D sky130_fd_sc_hd__and4_1
*I *864:A I *D sky130_fd_sc_hd__xor2_1
*I *901:Q O *D sky130_fd_sc_hd__dfxtp_1
*CAP
1 *865:C 1.43511e-05
2 *866:C 9.2655e-05
3 *864:A 0.000725258
4 *901:Q 0.00188844
5 *87:20 0.00138111
6 *87:10 0.00246598
7 *864:A *98:14 0.000442713
8 *864:A *98:37 0.000253908
9 *865:C *100:24 5.33005e-05
10 *866:C *866:B 5.33005e-05
11 *866:C *103:20 9.75679e-05
12 *87:10 *95:10 0.000179612
13 *87:10 *105:49 0.000158004
14 *87:20 *865:A 1.12578e-05
15 *87:20 *865:B 0.00103006
16 *87:20 *95:10 0.00150272
17 *87:20 *98:37 0.000135028
18 *87:20 *118:44 8.19632e-05
19 *841:A *87:20 2.06178e-05
20 *849:B *87:10 0.000141591
21 *918:A *87:20 0.000102053
22 *39:12 *864:A 0.00251646
23 *39:12 *87:20 0.000124296
24 *44:16 *866:C 0.000144732
25 *48:37 *864:A 0.00113926
26 *74:70 *87:20 0.00014261
27 *76:16 *87:10 0.000746907
28 *76:20 *866:C 0.000144732
29 *81:55 *865:C 5.50052e-05
30 *84:106 *87:10 3.55937e-05
*RES
1 *901:Q *87:10 42.8357 
2 *87:10 *87:20 26.0714 
3 *87:20 *864:A 37.3536 
4 *87:20 *866:C 21.1929 
5 *87:10 *865:C 14.3357 
*END

*D_NET *88 0.0100826
*CONN
*I *868:A1 I *D sky130_fd_sc_hd__o21ba_1
*I *866:D I *D sky130_fd_sc_hd__and4_1
*I *902:Q O *D sky130_fd_sc_hd__dfxtp_1
*CAP
1 *868:A1 0.00117072
2 *866:D 0.000852634
3 *902:Q 0.000645263
4 *88:10 0.00266862
5 *866:D *103:20 0.000644799
6 *868:A1 *89:46 0.00174674
7 *868:A1 *108:12 0
8 *868:A1 *108:36 0
9 *868:A1 *109:14 0
10 *88:10 *103:16 0.000201302
11 *88:10 *108:12 0
12 *891:D *88:10 0.000174805
13 *892:D *868:A1 0.000941306
14 *40:14 *88:10 1.72894e-05
15 *49:16 *868:A1 0.000444483
16 *51:24 *868:A1 0.000158744
17 *51:24 *88:10 4.06796e-05
18 *51:47 *868:A1 0.000375251
*RES
1 *902:Q *88:10 26.6036 
2 *88:10 *866:D 25.425 
3 *88:10 *868:A1 48.8179 
*END

*D_NET *89 0.0192826
*CONN
*I *875:A I *D sky130_fd_sc_hd__and4_1
*I *872:A I *D sky130_fd_sc_hd__and3_1
*I *869:A I *D sky130_fd_sc_hd__and2_1
*I *870:A I *D sky130_fd_sc_hd__nor2_1
*I *876:A I *D sky130_fd_sc_hd__and4_1
*I *903:Q O *D sky130_fd_sc_hd__dfxtp_1
*CAP
1 *875:A 0.000957405
2 *872:A 0
3 *869:A 0.000296529
4 *870:A 8.50173e-05
5 *876:A 0.0012767
6 *903:Q 0
7 *89:46 0.00185247
8 *89:21 0.00213548
9 *89:8 0.00281659
10 *89:4 0.00200278
11 *869:A *926:A 0
12 *869:A *102:16 9.50083e-05
13 *869:A *105:29 0.000356203
14 *870:A *98:12 0.000270257
15 *876:A *832:B1 0
16 *876:A *876:D 0.00113564
17 *876:A *108:12 0
18 *89:8 *103:16 5.52302e-05
19 *89:21 *860:A 0.000343263
20 *89:21 *103:16 0.000616714
21 *89:46 *860:A 0.000216892
22 *89:46 *105:29 0.000337443
23 *89:46 *108:36 0
24 *89:46 *109:14 0
25 *89:46 *110:16 0
26 *868:A1 *89:46 0.00174674
27 *870:B *870:A 0.000185118
28 *872:C *869:A 2.0954e-05
29 *891:CLK *89:8 0.000156659
30 *891:D *89:8 1.76204e-05
31 *892:D *89:46 0.000136958
32 *903:D *875:A 0.000592804
33 *917:A *89:46 5.30637e-06
34 *48:26 *875:A 0.000222878
35 *54:8 *869:A 0
36 *58:14 *89:8 5.24921e-05
37 *69:22 *875:A 0.000222878
38 *71:8 *876:A 0.000834356
39 *71:10 *876:A 0
40 *71:10 *89:21 0
41 *86:27 *876:A 8.6229e-06
42 *86:27 *89:21 0.000229608
*RES
1 *903:Q *89:4 9.3 
2 *89:4 *89:8 16.9464 
3 *89:8 *876:A 40.8179 
4 *89:8 *89:21 12.875 
5 *89:21 *870:A 16.8179 
6 *89:21 *89:46 48.75 
7 *89:46 *869:A 24.8714 
8 *89:46 *872:A 9.3 
9 *89:4 *875:A 31.9607 
*END

*D_NET *90 0.0224361
*CONN
*I *872:B I *D sky130_fd_sc_hd__and3_1
*I *875:B I *D sky130_fd_sc_hd__and4_1
*I *876:B I *D sky130_fd_sc_hd__and4_1
*I *873:A1 I *D sky130_fd_sc_hd__o21ba_1
*I *904:Q O *D sky130_fd_sc_hd__dfxtp_1
*CAP
1 *872:B 0.002187
2 *875:B 0
3 *876:B 0.000477471
4 *873:A1 4.60749e-05
5 *904:Q 3.25215e-05
6 *90:65 0.00302391
7 *90:24 0.000601771
8 *90:22 0.00260242
9 *90:10 0.00297688
10 *90:8 0.00132212
11 *872:B *926:A 7.83659e-05
12 *872:B *99:44 0.000122359
13 *876:B *876:D 5.50052e-05
14 *876:B *102:37 0
15 *90:10 *100:20 7.52927e-05
16 *90:22 *839:A1 0.00078799
17 *90:22 *857:B 0
18 *90:22 *881:B1 1.19402e-05
19 *90:65 *851:A 7.35955e-05
20 *90:65 *865:A 0
21 *90:65 *114:70 1.91817e-05
22 *839:A2 *90:22 0.000868625
23 *843:B *872:B 2.1692e-05
24 *851:B *90:65 4.77415e-05
25 *858:B *873:A1 5.52238e-05
26 *858:B *876:B 0
27 *858:B *90:24 0.000216121
28 *867:B *90:22 5.49544e-05
29 *869:B *872:B 3.14048e-05
30 *871:B *90:10 0.00061812
31 *871:B *90:22 0.000365476
32 *873:A2 *873:A1 0
33 *873:A2 *90:24 0.000113089
34 *873:B1_N *90:22 6.72661e-05
35 *873:B1_N *90:24 0.00014183
36 *877:D *876:B 0.000232346
37 *895:D *90:65 0.000566187
38 *904:CLK *90:8 2.89016e-05
39 *908:D *876:B 4.23907e-05
40 *914:RESET_B *90:65 0.000678867
41 *28:8 *90:22 0.000178255
42 *48:16 *90:10 0.000355481
43 *48:26 *90:10 0.000583506
44 *48:26 *90:22 0.000759743
45 *51:47 *872:B 4.93238e-05
46 *54:8 *872:B 4.15914e-05
47 *69:22 *90:8 9.60875e-05
48 *69:22 *90:10 0.000125554
49 *69:22 *90:22 7.80714e-06
50 *70:24 *872:B 0.000394965
51 *71:8 *876:B 5.66971e-05
52 *76:16 *90:65 0
53 *81:55 *90:10 0.000487729
54 *81:55 *90:65 0.000290986
55 *85:88 *90:8 2.59355e-05
56 *85:99 *90:10 5.66157e-05
57 *85:99 *90:65 0.000281736
58 *85:123 *90:65 0
*RES
1 *904:Q *90:8 14.7464 
2 *90:8 *90:10 17.4286 
3 *90:10 *90:22 49.2143 
4 *90:22 *90:24 3 
5 *90:24 *873:A1 10.2643 
6 *90:24 *876:B 28.3714 
7 *90:10 *875:B 13.8 
8 *90:8 *90:65 32.8571 
9 *90:65 *872:B 45.7464 
*END

*D_NET *91 0.0171158
*CONN
*I *875:C I *D sky130_fd_sc_hd__and4_1
*I *874:A I *D sky130_fd_sc_hd__xor2_1
*I *876:C I *D sky130_fd_sc_hd__and4_1
*I *905:Q O *D sky130_fd_sc_hd__dfxtp_1
*CAP
1 *875:C 0.000349158
2 *874:A 2.04426e-05
3 *876:C 0.00132032
4 *905:Q 0.00129317
5 *91:29 0.00067392
6 *91:20 0.00311683
7 *91:8 0.003394
8 *876:C *876:D 0.00203808
9 *91:8 *116:14 5.23735e-05
10 *91:20 *828:A2 2.13481e-06
11 *91:20 *831:A 0.000676303
12 *91:20 *832:A2 3.75959e-05
13 *91:20 *884:A 0.000212066
14 *91:20 *886:A 0.000185403
15 *91:20 *96:38 0.000446215
16 *830:A *875:C 0.000266479
17 *831:B *91:20 6.94441e-06
18 *871:B *874:A 5.33005e-05
19 *875:D *875:C 1.40415e-05
20 *905:CLK *91:8 5.93268e-05
21 *905:D *91:8 3.30833e-05
22 *911:D *875:C 0.000429497
23 *911:D *91:29 0.000246703
24 *912:RESET_B *91:8 4.14623e-05
25 *22:6 *875:C 0.00048453
26 *23:18 *875:C 0.000420874
27 *23:18 *91:20 9.96553e-05
28 *23:18 *91:29 0.000820995
29 *52:37 *874:A 2.59355e-05
30 *55:16 *875:C 4.3049e-05
31 *55:16 *91:20 5.17072e-05
32 *55:16 *91:29 0.000200231
*RES
1 *905:Q *91:8 29.1214 
2 *91:8 *91:20 39.3929 
3 *91:20 *876:C 28.7286 
4 *91:8 *91:29 10.75 
5 *91:29 *874:A 14.3357 
6 *91:29 *875:C 25.2821 
*END

*D_NET *92 0.00909702
*CONN
*I *878:A1 I *D sky130_fd_sc_hd__o21ba_1
*I *876:D I *D sky130_fd_sc_hd__and4_1
*I *906:Q O *D sky130_fd_sc_hd__dfxtp_1
*CAP
1 *878:A1 0.000875847
2 *876:D 0.000488918
3 *906:Q 2.13113e-05
4 *92:6 0.00138608
5 *876:D *832:A1 2.33087e-05
6 *876:D *832:A2 5.50052e-05
7 *876:D *832:B1 0.000140243
8 *878:A1 *832:A1 0.000303058
9 *878:A1 *881:A1 0.000791354
10 *878:A1 *93:33 5.50052e-05
11 *876:A *876:D 0.00113564
12 *876:B *876:D 5.50052e-05
13 *876:C *876:D 0.00203808
14 *878:B1_N *878:A1 0.00057831
15 *886:B *878:A1 3.24049e-05
16 *906:CLK *878:A1 0.00052926
17 *906:D *878:A1 0.000436039
18 *55:16 *878:A1 7.30591e-05
19 *67:10 *876:D 1.4796e-05
20 *71:8 *876:D 6.42916e-05
*RES
1 *906:Q *92:6 9.72857 
2 *92:6 *876:D 30.3714 
3 *92:6 *878:A1 35.4786 
*END

*D_NET *93 0.0150616
*CONN
*I *880:A I *D sky130_fd_sc_hd__nand3_2
*I *881:A1 I *D sky130_fd_sc_hd__a21o_1
*I *885:A I *D sky130_fd_sc_hd__and4_1
*I *879:A I *D sky130_fd_sc_hd__xor2_1
*I *907:Q O *D sky130_fd_sc_hd__dfxtp_1
*CAP
1 *880:A 6.22278e-05
2 *881:A1 0.000794162
3 *885:A 0
4 *879:A 0
5 *907:Q 0.000612923
6 *93:33 0.000820494
7 *93:29 0.00228554
8 *93:18 0.00385025
9 *93:8 0.00226619
10 *881:A1 *828:A2 9.77419e-05
11 *881:A1 *116:38 8.06937e-05
12 *93:29 *885:B 0.000110745
13 *93:29 *99:20 0
14 *829:B *93:29 0.00197746
15 *829:C *93:29 1.95435e-05
16 *878:A1 *881:A1 0.000791354
17 *878:A1 *93:33 5.50052e-05
18 *879:B *93:29 0.000872941
19 *894:D *93:8 0
20 *894:D *93:18 0
21 *55:16 *881:A1 0.000364371
22 *58:10 *93:18 0
*RES
1 *907:Q *93:8 25.1571 
2 *93:8 *93:18 31.8929 
3 *93:18 *879:A 9.3 
4 *93:18 *93:29 49.6429 
5 *93:29 *93:33 5.03571 
6 *93:33 *885:A 9.3 
7 *93:33 *881:A1 36.2643 
8 *93:8 *880:A 14.7464 
*END

*D_NET *94 0.0154502
*CONN
*I *881:B1 I *D sky130_fd_sc_hd__a21o_1
*I *885:B I *D sky130_fd_sc_hd__and4_1
*I *880:B I *D sky130_fd_sc_hd__nand3_2
*I *908:Q O *D sky130_fd_sc_hd__dfxtp_1
*CAP
1 *881:B1 0.000537876
2 *885:B 0.000254248
3 *880:B 0.000960875
4 *908:Q 0
5 *94:23 0.00406796
6 *94:4 0.00423671
7 *880:B *101:10 0
8 *881:B1 *857:B 0.000235117
9 *881:B1 *99:20 0
10 *885:B *857:B 0.000492305
11 *94:23 *827:A 1.98839e-05
12 *94:23 *115:18 0.00190548
13 *842:A *880:B 0.000409815
14 *880:C *880:B 0.000576491
15 *881:A2 *881:B1 0.000563315
16 *908:CLK *94:23 0.000246963
17 *908:D *94:23 0.000139639
18 *22:6 *880:B 0.000227532
19 *31:10 *880:B 0
20 *48:26 *881:B1 0.000118948
21 *57:25 *94:23 0.000334377
22 *90:22 *881:B1 1.19402e-05
23 *93:29 *885:B 0.000110745
*RES
1 *908:Q *94:4 9.3 
2 *94:4 *880:B 39.3179 
3 *94:4 *94:23 48.5714 
4 *94:23 *885:B 20.3 
5 *94:23 *881:B1 24.9071 
*END

*D_NET *95 0.0135097
*CONN
*I *884:A I *D sky130_fd_sc_hd__xnor2_1
*I *885:C I *D sky130_fd_sc_hd__and4_1
*I *909:Q O *D sky130_fd_sc_hd__dfxtp_1
*CAP
1 *884:A 0.00010652
2 *885:C 0.000816335
3 *909:Q 5.05023e-05
4 *95:10 0.00233208
5 *95:8 0.00145973
6 *884:A *828:A2 0.00017644
7 *884:A *96:38 9.84673e-05
8 *885:C *832:A1 0.00012249
9 *95:10 *832:A1 9.15842e-06
10 *95:10 *96:38 0
11 *95:10 *105:49 0.000158004
12 *95:10 *118:12 0.00166578
13 *849:A_N *95:10 4.51945e-05
14 *849:B *95:10 0.000266783
15 *906:D *885:C 0.00107933
16 *909:CLK *95:8 1.07719e-05
17 *74:70 *95:10 8.57395e-05
18 *76:20 *95:10 0.00313197
19 *87:10 *95:10 0.000179612
20 *87:20 *95:10 0.00150272
21 *91:20 *884:A 0.000212066
*RES
1 *909:Q *95:8 14.3357 
2 *95:8 *95:10 50.5179 
3 *95:10 *885:C 25.8357 
4 *95:10 *884:A 18.4429 
*END

*D_NET *96 0.0203345
*CONN
*I *848:A2 I *D sky130_fd_sc_hd__a31o_1
*I *841:B I *D sky130_fd_sc_hd__nand2_1
*I *120:DIODE I *D sky130_fd_sc_hd__diode_2
*I *846:B I *D sky130_fd_sc_hd__and4_1
*I *842:B I *D sky130_fd_sc_hd__or2_1
*I *892:Q O *D sky130_fd_sc_hd__dfxtp_1
*CAP
1 *848:A2 0.000157948
2 *841:B 5.57172e-05
3 *120:DIODE 0.000120335
4 *846:B 0
5 *842:B 7.09862e-05
6 *892:Q 0.00015356
7 *96:59 0.00314217
8 *96:38 0.00254565
9 *96:32 0.00634768
10 *96:22 0.0013499
11 *96:8 0.000754506
12 *120:DIODE *846:C 5.52302e-05
13 *848:A2 *848:A3 0.000127939
14 *848:A2 *105:49 0.000249105
15 *96:8 *117:53 5.33005e-05
16 *96:8 *117:64 0.000698722
17 *96:22 *105:49 0.000750996
18 *96:32 *848:B1 0.000216533
19 *96:32 *887:A 5.33005e-05
20 *96:38 *828:A2 3.14161e-05
21 *96:38 *828:B1 5.49995e-05
22 *829:C *96:38 1.29901e-05
23 *842:A *842:B 6.66813e-05
24 *848:A1 *848:A2 7.42082e-05
25 *848:A1 *96:22 0.000858885
26 *849:A_N *848:A2 1.21837e-05
27 *867:C *96:32 1.83766e-05
28 *867:C *96:38 0.000176802
29 *884:A *96:38 9.84673e-05
30 *884:B *96:38 0.000126509
31 *900:D *96:59 4.19624e-06
32 *33:8 *96:32 0
33 *33:8 *96:38 0
34 *49:16 *848:A2 0.00015078
35 *50:8 *96:32 0.000338067
36 *67:29 *96:8 0.000785322
37 *70:24 *841:B 1.33143e-05
38 *70:24 *96:32 7.19514e-05
39 *76:20 *96:38 0
40 *86:38 *96:32 6.51849e-05
41 *86:84 *120:DIODE 2.44318e-05
42 *91:20 *96:38 0.000446215
43 *95:10 *96:38 0
*RES
1 *892:Q *96:8 21.3179 
2 *96:8 *96:22 19.5625 
3 *96:22 *96:32 21.9464 
4 *96:32 *96:38 46.4018 
5 *96:38 *842:B 19.9429 
6 *96:32 *96:59 16.8326 
7 *96:59 *846:B 9.3 
8 *96:59 *120:DIODE 11.4786 
9 *96:22 *841:B 10.3893 
10 *96:8 *848:A2 19.0857 
*END

*D_NET *97 0.0109641
*CONN
*I *845:A I *D sky130_fd_sc_hd__xnor2_1
*I *846:C I *D sky130_fd_sc_hd__and4_1
*I *848:A3 I *D sky130_fd_sc_hd__a31o_1
*I *893:Q O *D sky130_fd_sc_hd__dfxtp_1
*CAP
1 *845:A 6.96428e-05
2 *846:C 0.000765406
3 *848:A3 0.000304991
4 *893:Q 0
5 *97:27 0.00321591
6 *97:4 0.00268585
7 *846:C *98:37 0
8 *848:A3 *100:20 3.19696e-05
9 *848:A3 *100:24 0.000105993
10 *97:27 *822:A 0.000248525
11 *97:27 *100:20 0.000282362
12 *120:DIODE *846:C 5.52302e-05
13 *845:B *845:A 5.20751e-05
14 *848:A2 *848:A3 0.000127939
15 *849:A_N *848:A3 0.000126416
16 *883:A *97:27 0.000750657
17 *893:D *97:27 7.00856e-05
18 *900:D *846:C 6.02454e-05
19 *49:16 *848:A3 5.49995e-05
20 *60:10 *846:C 0.000530906
21 *60:10 *97:27 0.00132907
22 *86:84 *846:C 9.58126e-05
*RES
1 *893:Q *97:4 9.3 
2 *97:4 *848:A3 23.3536 
3 *97:4 *97:27 47.25 
4 *97:27 *846:C 29.8 
5 *97:27 *845:A 15.1571 
*END

*D_NET *98 0.0171632
*CONN
*I *846:D I *D sky130_fd_sc_hd__and4_1
*I *848:B1 I *D sky130_fd_sc_hd__a31o_1
*I *894:Q O *D sky130_fd_sc_hd__dfxtp_1
*CAP
1 *846:D 3.99609e-05
2 *848:B1 0.000856809
3 *894:Q 0.00190375
4 *98:37 0.00196447
5 *98:14 0.00285436
6 *98:12 0.00197679
7 *848:B1 *887:A 2.21972e-05
8 *98:12 *859:A1 0.000787858
9 *98:12 *102:37 0.000128706
10 *846:C *98:37 0
11 *848:A1 *848:B1 0.00108499
12 *864:A *98:14 0.000442713
13 *864:A *98:37 0.000253908
14 *870:A *98:12 0.000270257
15 *870:B *98:12 3.97677e-05
16 *28:14 *98:12 0.000146254
17 *33:8 *848:B1 0
18 *33:8 *98:12 4.21415e-05
19 *39:12 *98:37 0.000515933
20 *48:37 *98:14 0.000439316
21 *48:37 *98:37 0.00119242
22 *53:14 *98:37 3.97677e-05
23 *70:24 *98:12 8.22306e-05
24 *73:14 *846:D 5.30637e-06
25 *73:14 *98:37 0.000519695
26 *81:38 *848:B1 0.000275222
27 *85:12 *98:37 0.000718523
28 *85:23 *98:37 3.2033e-05
29 *86:38 *848:B1 7.79135e-05
30 *86:84 *846:D 9.83442e-05
31 *87:20 *98:37 0.000135028
32 *96:32 *848:B1 0.000216533
*RES
1 *894:Q *98:12 49.5321 
2 *98:12 *98:14 4.23214 
3 *98:14 *848:B1 40.925 
4 *98:14 *98:37 45.5714 
5 *98:37 *846:D 14.7464 
*END

*D_NET *99 0.0198568
*CONN
*I *853:A1 I *D sky130_fd_sc_hd__a21oi_1
*I *852:A I *D sky130_fd_sc_hd__and3_1
*I *851:A I *D sky130_fd_sc_hd__xor2_1
*I *857:A I *D sky130_fd_sc_hd__and4_1
*I *895:Q O *D sky130_fd_sc_hd__dfxtp_1
*CAP
1 *853:A1 0.00155378
2 *852:A 0.000217167
3 *851:A 3.90591e-05
4 *857:A 0
5 *895:Q 0.000115329
6 *99:44 0.00375575
7 *99:20 0.00221607
8 *99:14 0.00270452
9 *99:8 0.00254952
10 *851:A *114:70 5.018e-05
11 *852:A *117:12 0.000139202
12 *853:A1 *853:B1 0.000286276
13 *99:20 *857:B 5.45307e-05
14 *99:20 *857:C 0
15 *824:A *99:20 2.97386e-05
16 *853:A2 *853:A1 0.00100089
17 *872:B *99:44 0.000122359
18 *881:B1 *99:20 0
19 *895:CLK *99:8 5.33005e-05
20 *903:CLK *99:20 0
21 *906:CLK *99:20 0
22 *914:RESET_B *99:14 0
23 *914:RESET_B *99:20 0
24 *48:16 *99:20 3.80347e-05
25 *51:47 *852:A 0.000649002
26 *51:47 *99:44 0.000153548
27 *69:22 *99:20 0.00208881
28 *70:24 *99:44 0.000333988
29 *74:16 *852:A 0.000140601
30 *84:91 *852:A 0.000216342
31 *84:106 *852:A 0.000432981
32 *84:106 *99:44 9.21227e-05
33 *85:99 *99:14 0.000348043
34 *85:99 *99:20 9.198e-05
35 *85:108 *99:14 0.000211928
36 *85:123 *99:14 2.22419e-05
37 *85:123 *99:44 7.58841e-05
38 *86:84 *99:20 0
39 *90:65 *851:A 7.35955e-05
40 *93:29 *99:20 0
*RES
1 *895:Q *99:8 15.1571 
2 *99:8 *99:14 9.39286 
3 *99:14 *99:20 48.6786 
4 *99:20 *857:A 9.3 
5 *99:14 *851:A 15.1571 
6 *99:8 *99:44 34.0893 
7 *99:44 *852:A 23.4786 
8 *99:44 *853:A1 35.425 
*END

*D_NET *100 0.0200514
*CONN
*I *857:B I *D sky130_fd_sc_hd__and4_1
*I *853:B1 I *D sky130_fd_sc_hd__a21oi_1
*I *852:B I *D sky130_fd_sc_hd__and3_1
*I *896:Q O *D sky130_fd_sc_hd__dfxtp_1
*CAP
1 *857:B 0.00135613
2 *853:B1 0.000432339
3 *852:B 0.00039116
4 *896:Q 0.000313486
5 *100:24 0.00197347
6 *100:20 0.00203208
7 *100:10 0.00255173
8 *852:B *913:CLK 0.000440238
9 *852:B *926:A 0.000340541
10 *852:B *111:12 2.07395e-06
11 *853:B1 *926:A 0.000189686
12 *857:B *861:A1 2.80728e-05
13 *100:24 *109:14 0.000349179
14 *836:A *100:24 0.000356682
15 *848:A3 *100:20 3.19696e-05
16 *848:A3 *100:24 0.000105993
17 *853:A1 *853:B1 0.000286276
18 *853:A2 *853:B1 0.000914857
19 *865:C *100:24 5.33005e-05
20 *871:B *857:B 0.000259286
21 *871:B *100:20 7.04664e-05
22 *878:B1_N *857:B 5.51649e-05
23 *881:A2 *857:B 0.000165833
24 *881:B1 *857:B 0.000235117
25 *885:B *857:B 0.000492305
26 *893:D *100:20 0.000295935
27 *26:10 *852:B 0.00034082
28 *26:10 *853:B1 0.000198115
29 *32:14 *857:B 0.000629445
30 *32:14 *100:10 9.47364e-06
31 *32:14 *100:20 3.54719e-05
32 *39:12 *100:10 0.000435813
33 *49:16 *100:24 0.000136727
34 *57:27 *857:B 0.00052379
35 *69:10 *100:20 0.000536866
36 *69:22 *100:20 0.000153047
37 *78:16 *853:B1 0.000996585
38 *81:38 *100:24 0.000188279
39 *81:55 *100:20 0.000931574
40 *81:55 *100:24 3.5097e-05
41 *85:12 *100:20 0.000196649
42 *85:88 *100:20 0.000568073
43 *90:10 *100:20 7.52927e-05
44 *90:22 *857:B 0
45 *97:27 *100:20 0.000282362
46 *99:20 *857:B 5.45307e-05
*RES
1 *896:Q *100:10 18.3089 
2 *100:10 *100:20 34.5268 
3 *100:20 *100:24 26.8036 
4 *100:24 *852:B 22.4071 
5 *100:24 *853:B1 30.4429 
6 *100:10 *857:B 47.3625 
*END

*D_NET *101 0.0172017
*CONN
*I *857:C I *D sky130_fd_sc_hd__and4_1
*I *856:A I *D sky130_fd_sc_hd__and2_1
*I *855:A I *D sky130_fd_sc_hd__xor2_1
*I *897:Q O *D sky130_fd_sc_hd__dfxtp_1
*CAP
1 *857:C 0.000929506
2 *856:A 0.000321968
3 *855:A 0.000232668
4 *897:Q 0
5 *101:10 0.00176286
6 *101:8 0.00418426
7 *101:4 0.00390555
8 *856:A *928:A 0.000274239
9 *855:B *855:A 0.000531403
10 *855:B *856:A 7.80714e-06
11 *855:B *101:10 9.69119e-06
12 *856:B *856:A 5.49995e-05
13 *859:A2 *101:10 0
14 *880:B *101:10 0
15 *894:D *101:10 0
16 *897:CLK *101:8 0.000118418
17 *902:D *101:8 0.000136993
18 *906:CLK *857:C 0.000854001
19 *913:D *856:A 0.000141375
20 *913:D *101:10 0.00148535
21 *31:10 *101:10 0
22 *40:14 *101:8 0.00158903
23 *44:16 *857:C 0.000356575
24 *44:16 *101:8 0.000305009
25 *99:20 *857:C 0
*RES
1 *897:Q *101:4 9.3 
2 *101:4 *101:8 42 
3 *101:8 *101:10 27.75 
4 *101:10 *855:A 19.2643 
5 *101:10 *856:A 21.9786 
6 *101:4 *857:C 35.8 
*END

*D_NET *102 0.0155377
*CONN
*I *857:D I *D sky130_fd_sc_hd__and4_1
*I *859:A1 I *D sky130_fd_sc_hd__o21ba_1
*I *898:Q O *D sky130_fd_sc_hd__dfxtp_1
*CAP
1 *857:D 0.00160569
2 *859:A1 0.000289135
3 *898:Q 0.00115908
4 *102:37 0.00376234
5 *102:16 0.00360486
6 *102:16 *926:A 0
7 *853:A2 *102:16 0.000640961
8 *858:A *102:37 0
9 *858:B *102:37 0.000101545
10 *859:A2 *859:A1 5.49995e-05
11 *869:A *102:16 9.50083e-05
12 *872:C *102:16 4.58194e-05
13 *873:A2 *102:37 0
14 *876:B *102:37 0
15 *877:D *102:37 0
16 *879:B *102:37 0
17 *21:26 *102:37 0.000296165
18 *25:12 *102:16 0.000663598
19 *39:10 *102:37 0.000170625
20 *42:14 *102:16 0
21 *42:14 *102:37 0.000506356
22 *52:8 *102:37 0
23 *54:8 *102:16 0
24 *57:8 *102:37 0
25 *78:16 *102:16 0.00150786
26 *78:16 *102:37 5.66971e-05
27 *80:10 *857:D 6.04075e-05
28 *98:12 *859:A1 0.000787858
29 *98:12 *102:37 0.000128706
*RES
1 *898:Q *102:16 49.8357 
2 *102:16 *859:A1 17.2464 
3 *102:16 *102:37 47.5268 
4 *102:37 *857:D 34.2732 
*END

*D_NET *103 0.017538
*CONN
*I *860:A I *D sky130_fd_sc_hd__xor2_1
*I *861:A1 I *D sky130_fd_sc_hd__a21oi_1
*I *865:A I *D sky130_fd_sc_hd__and4_1
*I *862:A I *D sky130_fd_sc_hd__and3_1
*I *866:A I *D sky130_fd_sc_hd__and4_1
*I *899:Q O *D sky130_fd_sc_hd__dfxtp_1
*CAP
1 *860:A 0.00038216
2 *861:A1 0.000668307
3 *865:A 0.000693283
4 *862:A 0.000220748
5 *866:A 0
6 *899:Q 0.000379116
7 *103:31 0.00124207
8 *103:27 0.00108752
9 *103:20 0.000481993
10 *103:16 0.00115209
11 *860:A *110:16 0
12 *860:A *113:10 9.58126e-05
13 *861:A1 *825:B1_N 0.000259103
14 *861:A1 *861:B1 0.000512916
15 *861:A1 *866:B 0.000146855
16 *861:A1 *914:CLK 9.7497e-05
17 *861:A1 *104:12 0.000787758
18 *861:A1 *115:51 0.000123932
19 *861:A1 *118:6 4.33899e-05
20 *862:A *825:A2 0.000241428
21 *865:A *865:B 0.000311884
22 *865:A *118:44 0.00075246
23 *103:20 *866:B 2.12647e-05
24 *103:27 *866:B 0.000109448
25 *103:27 *118:6 5.49544e-05
26 *103:27 *118:12 9.41642e-05
27 *103:31 *104:25 0
28 *103:31 *118:44 0.00053673
29 *824:A *862:A 0.000436245
30 *842:A *103:16 9.58126e-05
31 *857:B *861:A1 2.80728e-05
32 *862:C *862:A 5.22534e-05
33 *866:C *103:20 9.75679e-05
34 *866:D *103:20 0.000644799
35 *871:B *861:A1 5.74309e-05
36 *891:CLK *103:16 0.000434135
37 *895:D *865:A 0
38 *23:18 *861:A1 8.69272e-05
39 *40:14 *103:16 7.92444e-05
40 *48:16 *862:A 0.000180355
41 *51:24 *860:A 0.000378127
42 *51:24 *103:16 3.2923e-05
43 *51:24 *103:20 0.00133656
44 *51:47 *860:A 0.000764088
45 *81:38 *860:A 9.58126e-05
46 *84:16 *103:16 0
47 *84:91 *860:A 0.000526832
48 *86:27 *103:16 0.000269217
49 *87:20 *865:A 1.12578e-05
50 *88:10 *103:16 0.000201302
51 *89:8 *103:16 5.52302e-05
52 *89:21 *860:A 0.000343263
53 *89:21 *103:16 0.000616714
54 *89:46 *860:A 0.000216892
55 *90:65 *865:A 0
*RES
1 *899:Q *103:16 36.0857 
2 *103:16 *103:20 19 
3 *103:20 *866:A 9.3 
4 *103:20 *103:27 2.17857 
5 *103:27 *103:31 11.6071 
6 *103:31 *862:A 20.5143 
7 *103:31 *865:A 29.3893 
8 *103:27 *861:A1 38.3179 
9 *103:16 *860:A 29.4429 
*END

*D_NET *104 0.01203
*CONN
*I *861:B1 I *D sky130_fd_sc_hd__a21oi_1
*I *862:B I *D sky130_fd_sc_hd__and3_1
*I *865:B I *D sky130_fd_sc_hd__and4_1
*I *866:B I *D sky130_fd_sc_hd__and4_1
*I *900:Q O *D sky130_fd_sc_hd__dfxtp_1
*CAP
1 *861:B1 0.000439541
2 *862:B 0.000224012
3 *865:B 0.000532995
4 *866:B 0.000431252
5 *900:Q 0.000326026
6 *104:25 0.00110428
7 *104:12 0.00163848
8 *104:10 0.00162552
9 *861:B1 *115:51 2.83425e-05
10 *862:B *825:A2 0.000293639
11 *865:B *825:A2 0.000353908
12 *865:B *118:44 0.00069326
13 *104:10 *116:38 0
14 *104:25 *915:A 0.000560354
15 *861:A1 *861:B1 0.000512916
16 *861:A1 *866:B 0.000146855
17 *861:A1 *104:12 0.000787758
18 *865:A *865:B 0.000311884
19 *866:C *866:B 5.33005e-05
20 *911:D *104:10 0.000604529
21 *55:16 *104:10 0.000200406
22 *87:20 *865:B 0.00103006
23 *103:20 *866:B 2.12647e-05
24 *103:27 *866:B 0.000109448
25 *103:31 *104:25 0
*RES
1 *900:Q *104:10 27.2286 
2 *104:10 *104:12 11.2143 
3 *104:12 *866:B 14.7643 
4 *104:12 *104:25 16.4107 
5 *104:25 *865:B 34.8893 
6 *104:25 *862:B 12.3 
7 *104:10 *861:B1 15.6036 
*END

*D_NET *105 0.0214742
*CONN
*I *890:A I *D sky130_fd_sc_hd__inv_2
*I *888:A I *D sky130_fd_sc_hd__inv_2
*I *887:A I *D sky130_fd_sc_hd__inv_2
*I *889:A I *D sky130_fd_sc_hd__inv_2
*I *921:X O *D sky130_fd_sc_hd__buf_2
*CAP
1 *890:A 2.77166e-05
2 *888:A 0.00317596
3 *887:A 0.000166694
4 *889:A 0
5 *921:X 0.00062251
6 *105:49 0.00404958
7 *105:33 0.000916884
8 *105:29 0.00282514
9 *105:12 0.00326541
10 *888:A *828:A2 0
11 *888:A *886:A 5.4959e-05
12 *888:A *116:14 0.000174168
13 *888:A *116:38 0
14 *105:49 *835:A 4.54527e-05
15 *841:A *887:A 0.00016362
16 *841:A *888:A 0.000216576
17 *848:A1 *887:A 1.90936e-05
18 *848:A1 *105:49 7.58484e-06
19 *848:A2 *105:49 0.000249105
20 *848:B1 *887:A 2.21972e-05
21 *849:A_N *105:29 0.000148489
22 *849:A_N *105:49 0.000403621
23 *861:A2 *888:A 0.000191297
24 *863:A *888:A 0.001079
25 *869:A *105:29 0.000356203
26 *882:B *888:A 0
27 *905:CLK *888:A 0.000128977
28 *909:CLK *105:29 0.00012544
29 *909:D *105:29 3.29354e-05
30 *912:RESET_B *888:A 3.6236e-05
31 *913:RESET_B *105:12 8.55173e-05
32 *34:10 *888:A 0
33 *49:16 *105:29 0.000291284
34 *70:24 *887:A 5.49995e-05
35 *74:12 *105:49 0.00087399
36 *74:44 *105:49 4.90803e-05
37 *76:16 *890:A 2.59355e-05
38 *76:16 *105:33 2.42516e-05
39 *85:23 *888:A 0.000106576
40 *87:10 *105:49 0.000158004
41 *89:46 *105:29 0.000337443
42 *95:10 *105:49 0.000158004
43 *96:22 *105:49 0.000750996
44 *96:32 *887:A 5.33005e-05
*RES
1 *921:X *105:12 29.8179 
2 *105:12 *889:A 9.3 
3 *105:12 *105:29 49.7857 
4 *105:29 *105:33 2.60714 
5 *105:33 *105:49 34.7171 
6 *105:49 *887:A 18.3578 
7 *105:49 *888:A 49.3176 
8 *105:33 *890:A 9.83571 
*END

*D_NET *106 0.000860598
*CONN
*I *840:A I *D sky130_fd_sc_hd__inv_2
*I *920:X O *D sky130_fd_sc_hd__dlygate4sd3_1
*CAP
1 *840:A 8.99119e-05
2 *920:X 8.99119e-05
3 *22:6 *840:A 0.00023814
4 *86:34 *840:A 0.000442635
*RES
1 *920:X *840:A 22.8321 
*END

*D_NET *107 0.00717013
*CONN
*I *922:A I *D sky130_fd_sc_hd__buf_1
*I *834:Y O *D sky130_fd_sc_hd__o31ai_1
*CAP
1 *922:A 0.000764727
2 *834:Y 0.000591971
3 *107:10 0.0013567
4 *922:A *826:B 0.00111947
5 *922:A *116:53 0.00123663
6 *107:10 *114:8 0.000339638
7 *107:10 *116:51 0.00146692
8 *69:10 *922:A 0.000294083
*RES
1 *834:Y *107:10 36.9429 
2 *107:10 *922:A 32.5679 
*END

*D_NET *108 0.0146264
*CONN
*I *825:A2 I *D sky130_fd_sc_hd__o21ba_1
*I *923:A I *D sky130_fd_sc_hd__buf_1
*I *829:A I *D sky130_fd_sc_hd__and3_1
*I *832:B1 I *D sky130_fd_sc_hd__o21ai_2
*I *824:X O *D sky130_fd_sc_hd__clkbuf_2
*CAP
1 *825:A2 0.000990288
2 *923:A 0
3 *829:A 0
4 *832:B1 0.000311913
5 *824:X 0
6 *108:36 0.0012596
7 *108:12 0.00169522
8 *108:6 0.00307375
9 *108:4 0.00142113
10 *825:A2 *114:18 0.000352342
11 *108:36 *826:A 0.000153047
12 *108:36 *835:C 0
13 *108:36 *109:14 0.00129637
14 *824:A *825:A2 6.595e-05
15 *825:A1 *825:A2 0.000293676
16 *829:C *832:B1 8.68619e-05
17 *829:C *108:12 5.80706e-06
18 *861:A2 *825:A2 8.36038e-05
19 *862:A *825:A2 0.000241428
20 *862:B *825:A2 0.000293639
21 *862:C *825:A2 1.65169e-05
22 *865:B *825:A2 0.000353908
23 *868:A1 *108:12 0
24 *868:A1 *108:36 0
25 *876:A *832:B1 0
26 *876:A *108:12 0
27 *876:D *832:B1 0.000140243
28 *891:D *108:12 0
29 *917:A *108:6 0.000368199
30 *917:A *108:12 5.33433e-05
31 *918:A *825:A2 1.40034e-05
32 *918:A *108:6 0.000132879
33 *48:16 *825:A2 0.000222244
34 *67:10 *832:B1 7.93653e-05
35 *67:10 *108:12 9.79988e-05
36 *67:23 *108:12 0.000556232
37 *67:23 *108:36 0.000966844
38 *70:24 *108:36 0
39 *88:10 *108:12 0
40 *89:46 *108:36 0
*RES
1 *824:X *108:4 9.3 
2 *108:4 *108:6 9.16071 
3 *108:6 *108:12 31.6786 
4 *108:12 *832:B1 20.4429 
5 *108:12 *829:A 13.8 
6 *108:6 *108:36 41 
7 *108:36 *923:A 9.3 
8 *108:4 *825:A2 40.425 
*END

*D_NET *109 0.00477481
*CONN
*I *924:A I *D sky130_fd_sc_hd__buf_1
*I *836:X O *D sky130_fd_sc_hd__clkbuf_1
*CAP
1 *924:A 0
2 *836:X 0.00118173
3 *109:14 0.00118173
4 *109:14 *826:A 0.000272721
5 *109:14 *826:B 0.000493077
6 *868:A1 *109:14 0
7 *89:46 *109:14 0
8 *100:24 *109:14 0.000349179
9 *108:36 *109:14 0.00129637
*RES
1 *836:X *109:14 45.7464 
2 *109:14 *924:A 9.3 
*END

*D_NET *110 0.0108707
*CONN
*I *925:A I *D sky130_fd_sc_hd__buf_1
*I *915:X O *D sky130_fd_sc_hd__buf_1
*CAP
1 *925:A 0.00137156
2 *915:X 0.00189283
3 *110:16 0.00206226
4 *110:8 0.00258353
5 *925:A *826:A 9.93955e-05
6 *925:A *826:B 0.000185118
7 *925:A *926:A 0
8 *110:16 *113:10 9.41642e-05
9 *860:A *110:16 0
10 *51:60 *925:A 0
11 *53:14 *110:16 3.9733e-05
12 *58:33 *110:8 0.000280534
13 *71:10 *925:A 0.000877453
14 *71:10 *110:16 0.00128833
15 *81:23 *110:16 9.58126e-05
16 *84:91 *110:16 0
17 *84:106 *925:A 0
18 *89:46 *110:16 0
*RES
1 *915:X *110:8 35.6929 
2 *110:8 *110:16 26.4643 
3 *110:16 *925:A 39.9786 
*END

*D_NET *111 0.0113417
*CONN
*I *926:A I *D sky130_fd_sc_hd__buf_1
*I *839:Y O *D sky130_fd_sc_hd__o21ai_1
*CAP
1 *926:A 0.000828526
2 *839:Y 0.000525298
3 *111:12 0.00166424
4 *111:8 0.00136101
5 *926:A *826:A 2.89016e-05
6 *926:A *826:B 5.52238e-05
7 *844:A *926:A 0.000329436
8 *844:A *111:12 0.000842749
9 *852:B *926:A 0.000340541
10 *852:B *111:12 2.07395e-06
11 *853:B1 *926:A 0.000189686
12 *869:A *926:A 0
13 *872:B *926:A 7.83659e-05
14 *872:C *926:A 0.00012401
15 *877:B *111:12 5.84171e-05
16 *880:C *111:12 0.000454826
17 *902:D *111:12 0.00165126
18 *925:A *926:A 0
19 *21:26 *926:A 0
20 *21:26 *111:12 0.00052447
21 *26:10 *926:A 7.53226e-05
22 *26:10 *111:12 0.0002476
23 *28:8 *111:8 0.00078596
24 *51:60 *926:A 0.000385717
25 *54:8 *926:A 4.25654e-05
26 *54:8 *111:12 0.000473544
27 *57:8 *111:12 0.000271951
28 *102:16 *926:A 0
*RES
1 *839:Y *111:8 21.3179 
2 *111:8 *111:12 32.2768 
3 *111:12 *926:A 35.6661 
*END

*D_NET *112 0.0115666
*CONN
*I *927:A I *D sky130_fd_sc_hd__buf_1
*I *833:Y O *D sky130_fd_sc_hd__inv_2
*CAP
1 *927:A 0.000872544
2 *833:Y 0
3 *112:6 0.00408074
4 *112:4 0.0032082
5 *112:6 *117:71 1.39726e-05
6 *112:6 *118:61 0.000103646
7 *833:A *112:6 0.000250578
8 *892:D *112:6 1.64343e-05
9 *898:CLK *927:A 0
10 *25:12 *927:A 0
11 *41:12 *927:A 0.000886625
12 *67:29 *112:6 0.00213383
*RES
1 *833:Y *112:4 9.3 
2 *112:4 *112:6 52.2857 
3 *112:6 *927:A 37.55 
*END

*D_NET *113 0.0150775
*CONN
*I *915:A I *D sky130_fd_sc_hd__buf_1
*I *928:A I *D sky130_fd_sc_hd__buf_1
*I *838:X O *D sky130_fd_sc_hd__a211o_1
*CAP
1 *915:A 0.000692191
2 *928:A 0.00120682
3 *838:X 0.000748109
4 *113:10 0.00357761
5 *113:6 0.00381108
6 *838:A2 *113:6 0.000703588
7 *855:B *928:A 0.000101545
8 *855:B *113:10 2.89016e-05
9 *856:A *928:A 0.000274239
10 *856:B *928:A 0.000426863
11 *860:A *113:10 9.58126e-05
12 *914:RESET_B *915:A 0.00116011
13 *40:8 *113:10 0.000127031
14 *58:33 *915:A 5.6647e-05
15 *81:23 *113:10 0.000799025
16 *81:38 *113:10 0.000613452
17 *104:25 *915:A 0.000560354
18 *110:16 *113:10 9.41642e-05
*RES
1 *838:X *113:6 21.7464 
2 *113:6 *113:10 44.0536 
3 *113:10 *928:A 37.9071 
4 *113:6 *915:A 36.5679 
*END

*D_NET *114 0.0206999
*CONN
*I *913:CLK I *D sky130_fd_sc_hd__dfrtp_4
*I *914:CLK I *D sky130_fd_sc_hd__dfrtp_4
*I *911:CLK I *D sky130_fd_sc_hd__dfrtp_4
*I *912:CLK I *D sky130_fd_sc_hd__dfrtp_4
*I *886:A I *D sky130_fd_sc_hd__xor2_1
*I *910:Q O *D sky130_fd_sc_hd__dfxtp_2
*CAP
1 *913:CLK 0.000956283
2 *914:CLK 3.89636e-05
3 *911:CLK 1.99167e-05
4 *912:CLK 0
5 *886:A 0.00111396
6 *910:Q 0.000490222
7 *114:70 0.00369781
8 *114:22 0.00138762
9 *114:20 0.000794072
10 *114:18 0.00140831
11 *114:8 0.00410059
12 *886:A *831:A 0.000528421
13 *913:CLK *117:12 0.00110372
14 *114:8 *116:38 2.56694e-05
15 *114:8 *116:51 3.17077e-05
16 *114:18 *116:38 0.00037781
17 *114:70 *117:12 0.000236511
18 *825:A2 *114:18 0.000352342
19 *830:A *886:A 2.72055e-05
20 *830:A *114:20 0.000302518
21 *830:A *114:22 0.000287837
22 *831:B *886:A 0.000172285
23 *831:B *114:22 8.22338e-05
24 *845:B *114:18 0.000402747
25 *847:A *114:18 0.00040105
26 *851:A *114:70 5.018e-05
27 *851:B *114:70 0.000212457
28 *852:B *913:CLK 0.000440238
29 *861:A1 *914:CLK 9.7497e-05
30 *888:A *886:A 5.4959e-05
31 *911:RESET_B *911:CLK 5.33433e-05
32 *23:18 *914:CLK 0.000183711
33 *23:18 *114:20 0.000307474
34 *23:18 *114:22 0.000139062
35 *32:14 *114:20 0
36 *34:8 *886:A 2.7241e-05
37 *64:8 *114:22 6.98302e-05
38 *74:16 *114:70 8.08221e-05
39 *85:40 *911:CLK 9.90431e-05
40 *90:65 *114:70 1.91817e-05
41 *91:20 *886:A 0.000185403
42 *107:10 *114:8 0.000339638
*RES
1 *910:Q *114:8 24.55 
2 *114:8 *114:18 30.9821 
3 *114:18 *114:20 12.2679 
4 *114:20 *114:22 7.41071 
5 *114:22 *886:A 31.6214 
6 *114:22 *912:CLK 13.8 
7 *114:20 *911:CLK 14.7464 
8 *114:18 *914:CLK 15.5679 
9 *114:8 *114:70 36.6786 
10 *114:70 *913:CLK 29.5679 
*END

*D_NET *115 0.0313551
*CONN
*I *823:B I *D sky130_fd_sc_hd__or3_1
*I *835:C I *D sky130_fd_sc_hd__or3_1
*I *826:A I *D sky130_fd_sc_hd__xor2_1
*I *838:A1 I *D sky130_fd_sc_hd__a211o_1
*I *825:B1_N I *D sky130_fd_sc_hd__o21ba_1
*I *827:B I *D sky130_fd_sc_hd__nand3_1
*I *839:A1 I *D sky130_fd_sc_hd__o21ai_1
*I *828:A1 I *D sky130_fd_sc_hd__a21o_1
*I *911:Q O *D sky130_fd_sc_hd__dfrtp_4
*CAP
1 *823:B 0.000401069
2 *835:C 0.00085271
3 *826:A 0.000996402
4 *838:A1 0
5 *825:B1_N 0.000210218
6 *827:B 0
7 *839:A1 0.000307213
8 *828:A1 0.000199044
9 *911:Q 0
10 *115:77 0.00321469
11 *115:75 0.00230741
12 *115:64 0.000943491
13 *115:51 0.00117908
14 *115:18 0.000970524
15 *115:14 0.000882735
16 *115:6 0.000984595
17 *823:B *823:A 0.000219828
18 *826:A *826:B 0.00034951
19 *828:A1 *832:A2 9.15842e-06
20 *828:A1 *117:18 0.000355901
21 *839:A1 *117:16 0.000164509
22 *839:A1 *117:18 2.15339e-05
23 *115:14 *827:C 0.000437762
24 *115:14 *116:14 0.000357048
25 *115:18 *827:A 0.00215997
26 *115:64 *116:38 0.00116699
27 *115:75 *823:A 0.000433312
28 *115:75 *116:38 0.000311488
29 *115:75 *116:51 0.00141201
30 seg[4] *826:A 1.32552e-05
31 *839:A2 *839:A1 0.000134549
32 *839:B1 *839:A1 0.00049041
33 *849:A_N *115:77 0.000146022
34 *849:B *115:77 0.000360375
35 *850:A *115:14 0.00103745
36 *850:A *115:18 1.54142e-05
37 *861:A1 *825:B1_N 0.000259103
38 *861:A1 *115:51 0.000123932
39 *861:B1 *115:51 2.83425e-05
40 *884:B *828:A1 0.00010484
41 *884:B *839:A1 5.16193e-05
42 *905:D *115:14 0.000128702
43 *905:D *115:51 6.58102e-05
44 *911:D *825:B1_N 5.49995e-05
45 *925:A *826:A 9.93955e-05
46 *926:A *826:A 2.89016e-05
47 *23:18 *825:B1_N 5.49995e-05
48 *28:8 *839:A1 1.46148e-05
49 *33:8 *835:C 0
50 *34:10 *115:14 0.000363903
51 *34:10 *115:51 0.000974389
52 *36:12 *115:64 0.000848097
53 *36:12 *115:75 0.000527039
54 *62:8 *823:B 3.22663e-05
55 *62:8 *115:77 0.000383327
56 *70:24 *835:C 0.000550008
57 *73:14 *115:51 0.00041624
58 *76:16 *115:77 7.96867e-05
59 *90:22 *839:A1 0.00078799
60 *94:23 *115:18 0.00190548
61 *108:36 *826:A 0.000153047
62 *108:36 *835:C 0
63 *109:14 *826:A 0.000272721
*RES
1 *911:Q *115:6 13.8 
2 *115:6 *115:14 19.5893 
3 *115:14 *115:18 25.5714 
4 *115:18 *828:A1 18.4786 
5 *115:18 *839:A1 24.6036 
6 *115:14 *827:B 9.3 
7 *115:6 *115:51 21.7143 
8 *115:51 *825:B1_N 14.3714 
9 *115:51 *115:64 19.5 
10 *115:64 *838:A1 13.8 
11 *115:64 *115:75 26.4821 
12 *115:75 *115:77 26.8214 
13 *115:77 *826:A 37.6571 
14 *115:77 *835:C 35.425 
15 *115:75 *823:B 15.0857 
*END

*D_NET *116 0.0262839
*CONN
*I *823:C I *D sky130_fd_sc_hd__or3_1
*I *826:B I *D sky130_fd_sc_hd__xor2_1
*I *837:A I *D sky130_fd_sc_hd__inv_2
*I *834:A3 I *D sky130_fd_sc_hd__o31ai_1
*I *828:A2 I *D sky130_fd_sc_hd__a21o_1
*I *827:C I *D sky130_fd_sc_hd__nand3_1
*I *912:Q O *D sky130_fd_sc_hd__dfrtp_4
*CAP
1 *823:C 0.0004644
2 *826:B 0.00138132
3 *837:A 0
4 *834:A3 4.36033e-05
5 *828:A2 0.00216449
6 *827:C 0.000221402
7 *912:Q 0.000243061
8 *116:53 0.00182358
9 *116:51 0.00140357
10 *116:38 0.00192398
11 *116:23 0.00354796
12 *116:14 0.000464463
13 *823:C *823:A 0
14 *828:A2 *831:A 0.000460642
15 *834:A3 *117:64 5.33005e-05
16 an[3] *823:C 3.18676e-05
17 an[4] *116:53 3.18676e-05
18 an[5] *116:53 3.18676e-05
19 an[6] *826:B 5.65955e-05
20 an[7] *826:B 5.71472e-05
21 seg[0] *826:B 5.71472e-05
22 seg[1] *826:B 5.71472e-05
23 seg[2] *826:B 9.99853e-05
24 seg[3] *826:B 5.71472e-05
25 seg[4] *826:B 0.000232399
26 *826:A *826:B 0.00034951
27 *831:B *828:A2 4.51234e-05
28 *881:A1 *828:A2 9.77419e-05
29 *881:A1 *116:38 8.06937e-05
30 *882:B *116:38 0.000891936
31 *884:A *828:A2 0.00017644
32 *884:B *828:A2 0.000123932
33 *888:A *828:A2 0
34 *888:A *116:14 0.000174168
35 *888:A *116:38 0
36 *903:D *116:38 4.03518e-05
37 *905:CLK *116:14 0.00020455
38 *912:RESET_B *116:14 3.27666e-05
39 *922:A *826:B 0.00111947
40 *922:A *116:53 0.00123663
41 *925:A *826:B 0.000185118
42 *926:A *826:B 5.52238e-05
43 *23:18 *828:A2 0.000394949
44 *55:16 *116:38 0
45 *91:8 *116:14 5.23735e-05
46 *91:20 *828:A2 2.13481e-06
47 *96:38 *828:A2 3.14161e-05
48 *104:10 *116:38 0
49 *107:10 *116:51 0.00146692
50 *109:14 *826:B 0.000493077
51 *114:8 *116:38 2.56694e-05
52 *114:8 *116:51 3.17077e-05
53 *114:18 *116:38 0.00037781
54 *115:14 *827:C 0.000437762
55 *115:14 *116:14 0.000357048
56 *115:64 *116:38 0.00116699
57 *115:75 *116:38 0.000311488
58 *115:75 *116:51 0.00141201
*RES
1 *912:Q *116:14 24.9071 
2 *116:14 *827:C 13.5321 
3 *116:14 *116:23 4.5 
4 *116:23 *828:A2 44.1929 
5 *116:23 *116:38 36.25 
6 *116:38 *834:A3 14.3357 
7 *116:38 *116:51 24.9643 
8 *116:51 *116:53 12.0357 
9 *116:53 *837:A 9.3 
10 *116:53 *826:B 40.9786 
11 *116:51 *823:C 26.2107 
*END

*D_NET *117 0.028235
*CONN
*I *822:A I *D sky130_fd_sc_hd__inv_2
*I *838:C1 I *D sky130_fd_sc_hd__a211o_1
*I *834:A2 I *D sky130_fd_sc_hd__o31ai_1
*I *835:B I *D sky130_fd_sc_hd__or3_1
*I *827:A I *D sky130_fd_sc_hd__nand3_1
*I *828:B1 I *D sky130_fd_sc_hd__a21o_1
*I *832:A2 I *D sky130_fd_sc_hd__o21ai_2
*I *913:Q O *D sky130_fd_sc_hd__dfrtp_4
*CAP
1 *822:A 0.00125186
2 *838:C1 0.000366172
3 *834:A2 0
4 *835:B 0
5 *827:A 0.000406149
6 *828:B1 2.35133e-05
7 *832:A2 0.000130145
8 *913:Q 0.00156302
9 *117:71 0.0018504
10 *117:64 0.00197899
11 *117:53 0.00184821
12 *117:18 0.000318323
13 *117:16 0.00170149
14 *117:14 0.00123225
15 *117:12 0.00156302
16 *117:64 *118:61 0.000101825
17 *828:A1 *832:A2 9.15842e-06
18 *828:A1 *117:18 0.000355901
19 *833:A *117:64 0.000157838
20 *833:A *117:71 0.000338546
21 *834:A3 *117:64 5.33005e-05
22 *839:A1 *117:16 0.000164509
23 *839:A1 *117:18 2.15339e-05
24 *850:A *827:A 0.00133827
25 *852:A *117:12 0.000139202
26 *853:A2 *117:12 0.000965658
27 *876:D *832:A2 5.50052e-05
28 *884:B *117:16 0
29 *913:CLK *117:12 0.00110372
30 *12:23 *117:16 9.59532e-06
31 *28:14 *117:16 0.000766722
32 *34:10 *838:C1 0.000185596
33 *57:25 *827:A 0.000467518
34 *62:8 *822:A 5.49544e-05
35 *63:10 *822:A 0
36 *63:10 *838:C1 0.000127515
37 *67:10 *832:A2 5.02276e-05
38 *67:10 *117:16 5.26699e-05
39 *67:10 *117:18 0.000118548
40 *67:23 *117:16 0.000837702
41 *67:23 *117:53 4.97918e-05
42 *67:29 *117:64 0.00102768
43 *70:24 *117:16 0.00091812
44 *70:24 *117:53 0.000148903
45 *74:16 *117:12 0.000385843
46 *77:10 *117:12 0.000472066
47 *91:20 *832:A2 3.75959e-05
48 *94:23 *827:A 1.98839e-05
49 *96:8 *117:53 5.33005e-05
50 *96:8 *117:64 0.000698722
51 *96:38 *828:B1 5.49995e-05
52 *97:27 *822:A 0.000248525
53 *112:6 *117:71 1.39726e-05
54 *114:70 *117:12 0.000236511
55 *115:18 *827:A 0.00215997
*RES
1 *913:Q *117:12 46.0321 
2 *117:12 *117:14 4.5 
3 *117:14 *117:16 34.125 
4 *117:16 *117:18 4.98214 
5 *117:18 *832:A2 16.5857 
6 *117:18 *828:B1 14.3357 
7 *117:16 *827:A 34.8714 
8 *117:14 *117:53 6.98214 
9 *117:53 *835:B 9.3 
10 *117:53 *117:64 27.5804 
11 *117:64 *834:A2 9.3 
12 *117:64 *117:71 4.4375 
13 *117:71 *838:C1 26.4964 
14 *117:71 *822:A 40.4964 
*END

*D_NET *118 0.0233662
*CONN
*I *823:A I *D sky130_fd_sc_hd__or3_1
*I *834:A1 I *D sky130_fd_sc_hd__o31ai_1
*I *838:B1 I *D sky130_fd_sc_hd__a211o_1
*I *835:A I *D sky130_fd_sc_hd__or3_1
*I *831:A I *D sky130_fd_sc_hd__xnor2_1
*I *832:A1 I *D sky130_fd_sc_hd__o21ai_2
*I *914:Q O *D sky130_fd_sc_hd__dfrtp_4
*CAP
1 *823:A 0.000826217
2 *834:A1 0
3 *838:B1 0.00023959
4 *835:A 0.000871498
5 *831:A 0.000511788
6 *832:A1 0.000751068
7 *914:Q 3.47915e-05
8 *118:61 0.0029243
9 *118:44 0.00359811
10 *118:12 0.00194538
11 *118:6 0.00158543
12 *823:B *823:A 0.000219828
13 *823:C *823:A 0
14 *828:A2 *831:A 0.000460642
15 *831:B *831:A 0.000700922
16 *841:A *118:44 2.06178e-05
17 *861:A1 *118:6 4.33899e-05
18 *865:A *118:44 0.00075246
19 *865:B *118:44 0.00069326
20 *867:A *118:12 0.000379724
21 *867:B *118:12 1.87097e-05
22 *876:D *832:A1 2.33087e-05
23 *878:A1 *832:A1 0.000303058
24 *885:C *832:A1 0.00012249
25 *886:A *831:A 0.000528421
26 *918:A *118:44 0.000100474
27 *34:10 *823:A 0
28 *34:10 *838:B1 0
29 *36:12 *823:A 6.66677e-05
30 *36:12 *838:B1 0.000209815
31 *51:10 *118:12 4.98968e-05
32 *62:8 *823:A 0.000224366
33 *67:29 *118:61 0.000103646
34 *70:24 *835:A 2.21972e-05
35 *74:70 *118:12 0.000705477
36 *74:70 *118:44 0.00032691
37 *80:10 *832:A1 6.94579e-05
38 *80:10 *118:12 0.000129034
39 *87:20 *118:44 8.19632e-05
40 *91:20 *831:A 0.000676303
41 *95:10 *832:A1 9.15842e-06
42 *95:10 *118:12 0.00166578
43 *103:27 *118:6 5.49544e-05
44 *103:27 *118:12 9.41642e-05
45 *103:31 *118:44 0.00053673
46 *105:49 *835:A 4.54527e-05
47 *112:6 *118:61 0.000103646
48 *115:75 *823:A 0.000433312
49 *117:64 *118:61 0.000101825
*RES
1 *914:Q *118:6 10.2464 
2 *118:6 *118:12 27.4286 
3 *118:12 *832:A1 25.6214 
4 *118:12 *831:A 33.6393 
5 *118:6 *118:44 25.5459 
6 *118:44 *835:A 19.0832 
7 *118:44 *118:61 6.66397 
8 *118:61 *838:B1 19.3179 
9 *118:61 *834:A1 13.8 
10 *118:61 *823:A 34.7464 
*END
