*SPEF "ieee 1481-1999"
*DESIGN "top_module"
*DATE "12:30:55 Sunday May 25, 2025"
*VENDOR "The OpenROAD Project"
*PROGRAM "OpenROAD"
*VERSION "b16bda7e82721d10566ff7e2b68f1ff0be9f9e38"
*DESIGN_FLOW "NAME_SCOPE LOCAL" "PIN_CAP NONE"
*DIVIDER /
*DELIMITER :
*BUS_DELIMITER []
*T_UNIT 1 NS
*C_UNIT 1 PF
*R_UNIT 1 OHM
*L_UNIT 1 HENRY

*NAME_MAP
*1 BTNR
*2 BTNU
*3 CLK100MHZ
*6 net10
*7 net11
*8 net12
*9 net13
*10 seg[0]
*11 seg[1]
*12 seg[2]
*13 seg[3]
*14 seg[4]
*15 seg[5]
*16 seg[6]
*17 _000_
*18 _001_
*19 _002_
*20 _003_
*21 _004_
*22 _005_
*23 _006_
*24 _007_
*25 _008_
*26 _009_
*27 _010_
*28 _011_
*29 _012_
*30 _013_
*31 _014_
*32 _015_
*33 _016_
*34 _017_
*35 _018_
*36 _019_
*37 _020_
*38 _021_
*39 _022_
*40 _023_
*41 _024_
*42 _025_
*43 _026_
*44 _027_
*45 _028_
*46 _029_
*47 _030_
*48 _031_
*49 _032_
*50 _033_
*51 _034_
*52 _035_
*53 _036_
*54 _037_
*55 _038_
*56 _039_
*57 _040_
*58 _041_
*59 _042_
*60 _043_
*61 _044_
*62 _045_
*63 _046_
*64 _047_
*65 _048_
*66 _049_
*67 _050_
*68 _051_
*69 _052_
*70 _053_
*71 _054_
*72 _055_
*73 _056_
*74 _057_
*75 _058_
*76 _059_
*77 _060_
*78 _061_
*79 _062_
*80 _063_
*81 _064_
*82 _065_
*83 _066_
*84 _067_
*85 _068_
*86 _069_
*87 _070_
*88 _071_
*89 _072_
*90 _073_
*91 _074_
*92 _075_
*93 _076_
*94 _077_
*95 _078_
*96 _079_
*97 _080_
*98 _081_
*99 _082_
*100 _083_
*101 _084_
*102 _085_
*103 _086_
*104 _087_
*105 _088_
*106 _089_
*107 _090_
*108 _091_
*109 _092_
*110 _093_
*111 _094_
*112 _095_
*113 _096_
*114 _097_
*115 _098_
*116 _099_
*117 _100_
*118 _101_
*119 _102_
*120 _103_
*121 _104_
*122 _105_
*123 _106_
*124 _107_
*125 _108_
*126 _109_
*127 _110_
*128 _111_
*129 _112_
*130 _113_
*131 _114_
*132 _115_
*133 _116_
*134 _117_
*135 _118_
*136 _119_
*137 _120_
*138 _121_
*139 _122_
*140 _123_
*141 _124_
*142 _125_
*143 _126_
*144 _127_
*145 _128_
*146 _129_
*147 _130_
*148 _131_
*149 _132_
*150 _133_
*151 _134_
*152 _135_
*153 _136_
*154 _137_
*155 _138_
*156 _139_
*157 _140_
*158 _141_
*159 _142_
*160 _143_
*161 _144_
*162 _145_
*163 _146_
*164 _147_
*165 _148_
*166 _149_
*167 _150_
*168 _151_
*169 _152_
*170 _153_
*171 _154_
*172 _155_
*173 _156_
*174 _157_
*175 _158_
*176 _159_
*177 _160_
*178 _161_
*179 _162_
*180 _163_
*181 _164_
*182 _165_
*183 _166_
*184 _167_
*185 _168_
*186 _169_
*187 _170_
*188 _171_
*189 _172_
*190 _173_
*191 _174_
*192 _175_
*193 _176_
*194 _177_
*195 _178_
*196 _179_
*197 _180_
*198 _181_
*199 _182_
*200 _183_
*201 _184_
*202 _185_
*203 _186_
*204 _187_
*205 _188_
*206 _189_
*207 _190_
*208 _191_
*209 _192_
*210 _193_
*211 _194_
*212 _195_
*213 _196_
*214 _197_
*215 _198_
*216 _199_
*217 _200_
*218 _201_
*219 _202_
*220 _203_
*221 _204_
*222 _205_
*223 _206_
*224 _207_
*225 _208_
*226 _209_
*227 _210_
*228 _211_
*229 _212_
*230 _213_
*231 _214_
*232 clknet_0_CLK100MHZ
*233 clknet_1_0__leaf_CLK100MHZ
*234 clknet_1_1__leaf_CLK100MHZ
*235 imem\.address\[0\]
*236 imem\.address\[1\]
*237 imem\.address\[2\]
*238 net1
*239 net2
*240 net3
*241 net4
*242 net5
*243 net6
*244 net7
*245 net8
*246 net9
*247 rf\.regs\[0\]\[0\]
*248 rf\.regs\[0\]\[1\]
*249 rf\.regs\[0\]\[2\]
*250 rf\.regs\[0\]\[3\]
*251 rf\.regs\[0\]\[4\]
*252 rf\.regs\[10\]\[0\]
*253 rf\.regs\[10\]\[1\]
*254 rf\.regs\[10\]\[2\]
*255 rf\.regs\[10\]\[3\]
*256 rf\.regs\[10\]\[4\]
*257 rf\.regs\[15\]\[0\]
*258 rf\.regs\[15\]\[1\]
*259 rf\.regs\[15\]\[2\]
*260 rf\.regs\[15\]\[3\]
*261 rf\.regs\[15\]\[4\]
*262 rf\.regs\[25\]\[0\]
*263 rf\.regs\[25\]\[1\]
*264 rf\.regs\[25\]\[2\]
*265 rf\.regs\[25\]\[3\]
*266 rf\.regs\[25\]\[4\]
*267 rf\.regs\[5\]\[0\]
*268 rf\.regs\[5\]\[1\]
*269 rf\.regs\[5\]\[2\]
*270 rf\.regs\[5\]\[3\]
*271 rf\.regs\[5\]\[4\]
*272 ANTENNA_1
*273 ANTENNA_2
*274 ANTENNA_3
*275 ANTENNA_4
*276 ANTENNA_5
*277 ANTENNA_6
*278 FILLER_0_0_109
*279 FILLER_0_0_113
*280 FILLER_0_0_119
*281 FILLER_0_0_123
*282 FILLER_0_0_135
*283 FILLER_0_0_139
*284 FILLER_0_0_141
*285 FILLER_0_0_15
*286 FILLER_0_0_152
*287 FILLER_0_0_164
*288 FILLER_0_0_176
*289 FILLER_0_0_184
*290 FILLER_0_0_27
*291 FILLER_0_0_29
*292 FILLER_0_0_3
*293 FILLER_0_0_46
*294 FILLER_0_0_54
*295 FILLER_0_0_57
*296 FILLER_0_0_69
*297 FILLER_0_0_81
*298 FILLER_0_0_85
*299 FILLER_0_0_97
*300 FILLER_0_10_105
*301 FILLER_0_10_117
*302 FILLER_0_10_128
*303 FILLER_0_10_13
*304 FILLER_0_10_160
*305 FILLER_0_10_168
*306 FILLER_0_10_178
*307 FILLER_0_10_25
*308 FILLER_0_10_3
*309 FILLER_0_10_41
*310 FILLER_0_10_51
*311 FILLER_0_10_59
*312 FILLER_0_10_67
*313 FILLER_0_10_7
*314 FILLER_0_10_79
*315 FILLER_0_10_83
*316 FILLER_0_10_85
*317 FILLER_0_10_97
*318 FILLER_0_11_103
*319 FILLER_0_11_11
*320 FILLER_0_11_113
*321 FILLER_0_11_118
*322 FILLER_0_11_137
*323 FILLER_0_11_159
*324 FILLER_0_11_167
*325 FILLER_0_11_169
*326 FILLER_0_11_189
*327 FILLER_0_11_19
*328 FILLER_0_11_3
*329 FILLER_0_11_31
*330 FILLER_0_11_38
*331 FILLER_0_11_50
*332 FILLER_0_11_54
*333 FILLER_0_11_62
*334 FILLER_0_11_74
*335 FILLER_0_11_91
*336 FILLER_0_12_103
*337 FILLER_0_12_132
*338 FILLER_0_12_15
*339 FILLER_0_12_154
*340 FILLER_0_12_166
*341 FILLER_0_12_178
*342 FILLER_0_12_182
*343 FILLER_0_12_27
*344 FILLER_0_12_29
*345 FILLER_0_12_3
*346 FILLER_0_12_33
*347 FILLER_0_12_50
*348 FILLER_0_12_62
*349 FILLER_0_12_66
*350 FILLER_0_12_79
*351 FILLER_0_12_83
*352 FILLER_0_13_111
*353 FILLER_0_13_137
*354 FILLER_0_13_14
*355 FILLER_0_13_149
*356 FILLER_0_13_161
*357 FILLER_0_13_167
*358 FILLER_0_13_169
*359 FILLER_0_13_183
*360 FILLER_0_13_189
*361 FILLER_0_13_26
*362 FILLER_0_13_3
*363 FILLER_0_13_38
*364 FILLER_0_13_44
*365 FILLER_0_13_48
*366 FILLER_0_13_57
*367 FILLER_0_13_69
*368 FILLER_0_13_77
*369 FILLER_0_13_94
*370 FILLER_0_14_111
*371 FILLER_0_14_124
*372 FILLER_0_14_128
*373 FILLER_0_14_132
*374 FILLER_0_14_139
*375 FILLER_0_14_141
*376 FILLER_0_14_15
*377 FILLER_0_14_153
*378 FILLER_0_14_165
*379 FILLER_0_14_179
*380 FILLER_0_14_26
*381 FILLER_0_14_36
*382 FILLER_0_14_40
*383 FILLER_0_14_48
*384 FILLER_0_14_54
*385 FILLER_0_14_58
*386 FILLER_0_14_7
*387 FILLER_0_14_80
*388 FILLER_0_14_85
*389 FILLER_0_15_100
*390 FILLER_0_15_113
*391 FILLER_0_15_132
*392 FILLER_0_15_144
*393 FILLER_0_15_148
*394 FILLER_0_15_156
*395 FILLER_0_15_169
*396 FILLER_0_15_187
*397 FILLER_0_15_3
*398 FILLER_0_15_57
*399 FILLER_0_15_65
*400 FILLER_0_15_7
*401 FILLER_0_15_82
*402 FILLER_0_15_94
*403 FILLER_0_16_101
*404 FILLER_0_16_113
*405 FILLER_0_16_117
*406 FILLER_0_16_134
*407 FILLER_0_16_141
*408 FILLER_0_16_15
*409 FILLER_0_16_162
*410 FILLER_0_16_167
*411 FILLER_0_16_179
*412 FILLER_0_16_187
*413 FILLER_0_16_27
*414 FILLER_0_16_29
*415 FILLER_0_16_41
*416 FILLER_0_16_65
*417 FILLER_0_16_85
*418 FILLER_0_16_91
*419 FILLER_0_17_101
*420 FILLER_0_17_107
*421 FILLER_0_17_111
*422 FILLER_0_17_123
*423 FILLER_0_17_135
*424 FILLER_0_17_147
*425 FILLER_0_17_15
*426 FILLER_0_17_151
*427 FILLER_0_17_181
*428 FILLER_0_17_3
*429 FILLER_0_17_39
*430 FILLER_0_17_48
*431 FILLER_0_17_57
*432 FILLER_0_17_69
*433 FILLER_0_17_81
*434 FILLER_0_17_89
*435 FILLER_0_18_117
*436 FILLER_0_18_127
*437 FILLER_0_18_139
*438 FILLER_0_18_141
*439 FILLER_0_18_15
*440 FILLER_0_18_153
*441 FILLER_0_18_160
*442 FILLER_0_18_179
*443 FILLER_0_18_19
*444 FILLER_0_18_24
*445 FILLER_0_18_29
*446 FILLER_0_18_3
*447 FILLER_0_18_41
*448 FILLER_0_18_53
*449 FILLER_0_18_65
*450 FILLER_0_18_77
*451 FILLER_0_18_83
*452 FILLER_0_18_85
*453 FILLER_0_19_105
*454 FILLER_0_19_111
*455 FILLER_0_19_121
*456 FILLER_0_19_132
*457 FILLER_0_19_144
*458 FILLER_0_19_15
*459 FILLER_0_19_156
*460 FILLER_0_19_169
*461 FILLER_0_19_177
*462 FILLER_0_19_186
*463 FILLER_0_19_27
*464 FILLER_0_19_3
*465 FILLER_0_19_34
*466 FILLER_0_19_46
*467 FILLER_0_19_55
*468 FILLER_0_19_57
*469 FILLER_0_19_88
*470 FILLER_0_1_111
*471 FILLER_0_1_125
*472 FILLER_0_1_145
*473 FILLER_0_1_15
*474 FILLER_0_1_150
*475 FILLER_0_1_162
*476 FILLER_0_1_169
*477 FILLER_0_1_175
*478 FILLER_0_1_179
*479 FILLER_0_1_187
*480 FILLER_0_1_27
*481 FILLER_0_1_3
*482 FILLER_0_1_35
*483 FILLER_0_1_42
*484 FILLER_0_1_48
*485 FILLER_0_1_57
*486 FILLER_0_1_69
*487 FILLER_0_1_81
*488 FILLER_0_1_89
*489 FILLER_0_20_101
*490 FILLER_0_20_115
*491 FILLER_0_20_129
*492 FILLER_0_20_137
*493 FILLER_0_20_145
*494 FILLER_0_20_157
*495 FILLER_0_20_168
*496 FILLER_0_20_180
*497 FILLER_0_20_186
*498 FILLER_0_20_19
*499 FILLER_0_20_27
*500 FILLER_0_20_29
*501 FILLER_0_20_41
*502 FILLER_0_20_45
*503 FILLER_0_20_7
*504 FILLER_0_20_82
*505 FILLER_0_21_109
*506 FILLER_0_21_120
*507 FILLER_0_21_132
*508 FILLER_0_21_144
*509 FILLER_0_21_15
*510 FILLER_0_21_156
*511 FILLER_0_21_166
*512 FILLER_0_21_169
*513 FILLER_0_21_185
*514 FILLER_0_21_189
*515 FILLER_0_21_3
*516 FILLER_0_21_33
*517 FILLER_0_21_45
*518 FILLER_0_21_53
*519 FILLER_0_21_57
*520 FILLER_0_21_80
*521 FILLER_0_21_84
*522 FILLER_0_21_88
*523 FILLER_0_21_92
*524 FILLER_0_22_108
*525 FILLER_0_22_120
*526 FILLER_0_22_129
*527 FILLER_0_22_13
*528 FILLER_0_22_141
*529 FILLER_0_22_153
*530 FILLER_0_22_165
*531 FILLER_0_22_17
*532 FILLER_0_22_177
*533 FILLER_0_22_189
*534 FILLER_0_22_25
*535 FILLER_0_22_29
*536 FILLER_0_22_3
*537 FILLER_0_22_41
*538 FILLER_0_22_53
*539 FILLER_0_22_65
*540 FILLER_0_22_77
*541 FILLER_0_22_83
*542 FILLER_0_22_85
*543 FILLER_0_22_97
*544 FILLER_0_23_111
*545 FILLER_0_23_117
*546 FILLER_0_23_125
*547 FILLER_0_23_148
*548 FILLER_0_23_160
*549 FILLER_0_23_169
*550 FILLER_0_23_176
*551 FILLER_0_23_184
*552 FILLER_0_23_19
*553 FILLER_0_23_31
*554 FILLER_0_23_43
*555 FILLER_0_23_57
*556 FILLER_0_23_69
*557 FILLER_0_23_7
*558 FILLER_0_23_81
*559 FILLER_0_23_92
*560 FILLER_0_24_103
*561 FILLER_0_24_120
*562 FILLER_0_24_132
*563 FILLER_0_24_141
*564 FILLER_0_24_152
*565 FILLER_0_24_165
*566 FILLER_0_24_177
*567 FILLER_0_24_18
*568 FILLER_0_24_189
*569 FILLER_0_24_26
*570 FILLER_0_24_29
*571 FILLER_0_24_41
*572 FILLER_0_24_48
*573 FILLER_0_24_6
*574 FILLER_0_24_60
*575 FILLER_0_24_72
*576 FILLER_0_24_85
*577 FILLER_0_24_97
*578 FILLER_0_25_105
*579 FILLER_0_25_111
*580 FILLER_0_25_138
*581 FILLER_0_25_150
*582 FILLER_0_25_156
*583 FILLER_0_25_162
*584 FILLER_0_25_169
*585 FILLER_0_25_181
*586 FILLER_0_25_189
*587 FILLER_0_25_19
*588 FILLER_0_25_3
*589 FILLER_0_25_31
*590 FILLER_0_25_39
*591 FILLER_0_25_44
*592 FILLER_0_25_57
*593 FILLER_0_25_69
*594 FILLER_0_25_81
*595 FILLER_0_25_93
*596 FILLER_0_26_106
*597 FILLER_0_26_114
*598 FILLER_0_26_121
*599 FILLER_0_26_133
*600 FILLER_0_26_139
*601 FILLER_0_26_141
*602 FILLER_0_26_149
*603 FILLER_0_26_163
*604 FILLER_0_26_173
*605 FILLER_0_26_181
*606 FILLER_0_26_19
*607 FILLER_0_26_27
*608 FILLER_0_26_29
*609 FILLER_0_26_35
*610 FILLER_0_26_7
*611 FILLER_0_26_70
*612 FILLER_0_26_78
*613 FILLER_0_26_91
*614 FILLER_0_26_99
*615 FILLER_0_27_106
*616 FILLER_0_27_113
*617 FILLER_0_27_125
*618 FILLER_0_27_137
*619 FILLER_0_27_141
*620 FILLER_0_27_145
*621 FILLER_0_27_15
*622 FILLER_0_27_153
*623 FILLER_0_27_165
*624 FILLER_0_27_169
*625 FILLER_0_27_181
*626 FILLER_0_27_27
*627 FILLER_0_27_3
*628 FILLER_0_27_36
*629 FILLER_0_27_48
*630 FILLER_0_27_57
*631 FILLER_0_27_69
*632 FILLER_0_27_81
*633 FILLER_0_27_85
*634 FILLER_0_27_94
*635 FILLER_0_2_102
*636 FILLER_0_2_129
*637 FILLER_0_2_137
*638 FILLER_0_2_141
*639 FILLER_0_2_153
*640 FILLER_0_2_159
*641 FILLER_0_2_164
*642 FILLER_0_2_176
*643 FILLER_0_2_180
*644 FILLER_0_2_20
*645 FILLER_0_2_29
*646 FILLER_0_2_3
*647 FILLER_0_2_41
*648 FILLER_0_2_53
*649 FILLER_0_2_65
*650 FILLER_0_2_77
*651 FILLER_0_2_83
*652 FILLER_0_2_85
*653 FILLER_0_2_96
*654 FILLER_0_3_10
*655 FILLER_0_3_102
*656 FILLER_0_3_111
*657 FILLER_0_3_133
*658 FILLER_0_3_145
*659 FILLER_0_3_157
*660 FILLER_0_3_165
*661 FILLER_0_3_18
*662 FILLER_0_3_188
*663 FILLER_0_3_3
*664 FILLER_0_3_30
*665 FILLER_0_3_41
*666 FILLER_0_3_49
*667 FILLER_0_3_55
*668 FILLER_0_3_57
*669 FILLER_0_3_62
*670 FILLER_0_3_7
*671 FILLER_0_3_74
*672 FILLER_0_3_86
*673 FILLER_0_3_98
*674 FILLER_0_4_105
*675 FILLER_0_4_126
*676 FILLER_0_4_138
*677 FILLER_0_4_141
*678 FILLER_0_4_15
*679 FILLER_0_4_153
*680 FILLER_0_4_165
*681 FILLER_0_4_177
*682 FILLER_0_4_189
*683 FILLER_0_4_21
*684 FILLER_0_4_27
*685 FILLER_0_4_29
*686 FILLER_0_4_41
*687 FILLER_0_4_53
*688 FILLER_0_4_69
*689 FILLER_0_4_81
*690 FILLER_0_4_85
*691 FILLER_0_4_97
*692 FILLER_0_5_109
*693 FILLER_0_5_11
*694 FILLER_0_5_113
*695 FILLER_0_5_125
*696 FILLER_0_5_137
*697 FILLER_0_5_141
*698 FILLER_0_5_159
*699 FILLER_0_5_167
*700 FILLER_0_5_177
*701 FILLER_0_5_185
*702 FILLER_0_5_3
*703 FILLER_0_5_36
*704 FILLER_0_5_42
*705 FILLER_0_5_46
*706 FILLER_0_5_50
*707 FILLER_0_5_73
*708 FILLER_0_5_85
*709 FILLER_0_5_97
*710 FILLER_0_6_109
*711 FILLER_0_6_121
*712 FILLER_0_6_130
*713 FILLER_0_6_138
*714 FILLER_0_6_141
*715 FILLER_0_6_145
*716 FILLER_0_6_149
*717 FILLER_0_6_154
*718 FILLER_0_6_166
*719 FILLER_0_6_172
*720 FILLER_0_6_184
*721 FILLER_0_6_19
*722 FILLER_0_6_39
*723 FILLER_0_6_48
*724 FILLER_0_6_54
*725 FILLER_0_6_58
*726 FILLER_0_6_70
*727 FILLER_0_6_82
*728 FILLER_0_6_85
*729 FILLER_0_6_97
*730 FILLER_0_7_104
*731 FILLER_0_7_113
*732 FILLER_0_7_125
*733 FILLER_0_7_137
*734 FILLER_0_7_149
*735 FILLER_0_7_161
*736 FILLER_0_7_167
*737 FILLER_0_7_175
*738 FILLER_0_7_19
*739 FILLER_0_7_3
*740 FILLER_0_7_38
*741 FILLER_0_7_50
*742 FILLER_0_7_57
*743 FILLER_0_7_68
*744 FILLER_0_7_80
*745 FILLER_0_7_9
*746 FILLER_0_7_92
*747 FILLER_0_8_101
*748 FILLER_0_8_107
*749 FILLER_0_8_119
*750 FILLER_0_8_131
*751 FILLER_0_8_136
*752 FILLER_0_8_141
*753 FILLER_0_8_147
*754 FILLER_0_8_15
*755 FILLER_0_8_158
*756 FILLER_0_8_168
*757 FILLER_0_8_180
*758 FILLER_0_8_27
*759 FILLER_0_8_3
*760 FILLER_0_8_36
*761 FILLER_0_8_41
*762 FILLER_0_8_53
*763 FILLER_0_8_65
*764 FILLER_0_8_73
*765 FILLER_0_8_81
*766 FILLER_0_8_85
*767 FILLER_0_8_97
*768 FILLER_0_9_103
*769 FILLER_0_9_111
*770 FILLER_0_9_113
*771 FILLER_0_9_121
*772 FILLER_0_9_126
*773 FILLER_0_9_159
*774 FILLER_0_9_167
*775 FILLER_0_9_169
*776 FILLER_0_9_181
*777 FILLER_0_9_189
*778 FILLER_0_9_19
*779 FILLER_0_9_31
*780 FILLER_0_9_35
*781 FILLER_0_9_39
*782 FILLER_0_9_49
*783 FILLER_0_9_55
*784 FILLER_0_9_57
*785 FILLER_0_9_69
*786 FILLER_0_9_81
*787 FILLER_0_9_93
*788 FILLER_0_9_99
*789 PHY_EDGE_ROW_0_Left_28
*790 PHY_EDGE_ROW_0_Right_0
*791 PHY_EDGE_ROW_10_Left_38
*792 PHY_EDGE_ROW_10_Right_10
*793 PHY_EDGE_ROW_11_Left_39
*794 PHY_EDGE_ROW_11_Right_11
*795 PHY_EDGE_ROW_12_Left_40
*796 PHY_EDGE_ROW_12_Right_12
*797 PHY_EDGE_ROW_13_Left_41
*798 PHY_EDGE_ROW_13_Right_13
*799 PHY_EDGE_ROW_14_Left_42
*800 PHY_EDGE_ROW_14_Right_14
*801 PHY_EDGE_ROW_15_Left_43
*802 PHY_EDGE_ROW_15_Right_15
*803 PHY_EDGE_ROW_16_Left_44
*804 PHY_EDGE_ROW_16_Right_16
*805 PHY_EDGE_ROW_17_Left_45
*806 PHY_EDGE_ROW_17_Right_17
*807 PHY_EDGE_ROW_18_Left_46
*808 PHY_EDGE_ROW_18_Right_18
*809 PHY_EDGE_ROW_19_Left_47
*810 PHY_EDGE_ROW_19_Right_19
*811 PHY_EDGE_ROW_1_Left_29
*812 PHY_EDGE_ROW_1_Right_1
*813 PHY_EDGE_ROW_20_Left_48
*814 PHY_EDGE_ROW_20_Right_20
*815 PHY_EDGE_ROW_21_Left_49
*816 PHY_EDGE_ROW_21_Right_21
*817 PHY_EDGE_ROW_22_Left_50
*818 PHY_EDGE_ROW_22_Right_22
*819 PHY_EDGE_ROW_23_Left_51
*820 PHY_EDGE_ROW_23_Right_23
*821 PHY_EDGE_ROW_24_Left_52
*822 PHY_EDGE_ROW_24_Right_24
*823 PHY_EDGE_ROW_25_Left_53
*824 PHY_EDGE_ROW_25_Right_25
*825 PHY_EDGE_ROW_26_Left_54
*826 PHY_EDGE_ROW_26_Right_26
*827 PHY_EDGE_ROW_27_Left_55
*828 PHY_EDGE_ROW_27_Right_27
*829 PHY_EDGE_ROW_2_Left_30
*830 PHY_EDGE_ROW_2_Right_2
*831 PHY_EDGE_ROW_3_Left_31
*832 PHY_EDGE_ROW_3_Right_3
*833 PHY_EDGE_ROW_4_Left_32
*834 PHY_EDGE_ROW_4_Right_4
*835 PHY_EDGE_ROW_5_Left_33
*836 PHY_EDGE_ROW_5_Right_5
*837 PHY_EDGE_ROW_6_Left_34
*838 PHY_EDGE_ROW_6_Right_6
*839 PHY_EDGE_ROW_7_Left_35
*840 PHY_EDGE_ROW_7_Right_7
*841 PHY_EDGE_ROW_8_Left_36
*842 PHY_EDGE_ROW_8_Right_8
*843 PHY_EDGE_ROW_9_Left_37
*844 PHY_EDGE_ROW_9_Right_9
*845 TAP_TAPCELL_ROW_0_56
*846 TAP_TAPCELL_ROW_0_57
*847 TAP_TAPCELL_ROW_0_58
*848 TAP_TAPCELL_ROW_0_59
*849 TAP_TAPCELL_ROW_0_60
*850 TAP_TAPCELL_ROW_0_61
*851 TAP_TAPCELL_ROW_10_89
*852 TAP_TAPCELL_ROW_10_90
*853 TAP_TAPCELL_ROW_10_91
*854 TAP_TAPCELL_ROW_11_92
*855 TAP_TAPCELL_ROW_11_93
*856 TAP_TAPCELL_ROW_11_94
*857 TAP_TAPCELL_ROW_12_95
*858 TAP_TAPCELL_ROW_12_96
*859 TAP_TAPCELL_ROW_12_97
*860 TAP_TAPCELL_ROW_13_100
*861 TAP_TAPCELL_ROW_13_98
*862 TAP_TAPCELL_ROW_13_99
*863 TAP_TAPCELL_ROW_14_101
*864 TAP_TAPCELL_ROW_14_102
*865 TAP_TAPCELL_ROW_14_103
*866 TAP_TAPCELL_ROW_15_104
*867 TAP_TAPCELL_ROW_15_105
*868 TAP_TAPCELL_ROW_15_106
*869 TAP_TAPCELL_ROW_16_107
*870 TAP_TAPCELL_ROW_16_108
*871 TAP_TAPCELL_ROW_16_109
*872 TAP_TAPCELL_ROW_17_110
*873 TAP_TAPCELL_ROW_17_111
*874 TAP_TAPCELL_ROW_17_112
*875 TAP_TAPCELL_ROW_18_113
*876 TAP_TAPCELL_ROW_18_114
*877 TAP_TAPCELL_ROW_18_115
*878 TAP_TAPCELL_ROW_19_116
*879 TAP_TAPCELL_ROW_19_117
*880 TAP_TAPCELL_ROW_19_118
*881 TAP_TAPCELL_ROW_1_62
*882 TAP_TAPCELL_ROW_1_63
*883 TAP_TAPCELL_ROW_1_64
*884 TAP_TAPCELL_ROW_20_119
*885 TAP_TAPCELL_ROW_20_120
*886 TAP_TAPCELL_ROW_20_121
*887 TAP_TAPCELL_ROW_21_122
*888 TAP_TAPCELL_ROW_21_123
*889 TAP_TAPCELL_ROW_21_124
*890 TAP_TAPCELL_ROW_22_125
*891 TAP_TAPCELL_ROW_22_126
*892 TAP_TAPCELL_ROW_22_127
*893 TAP_TAPCELL_ROW_23_128
*894 TAP_TAPCELL_ROW_23_129
*895 TAP_TAPCELL_ROW_23_130
*896 TAP_TAPCELL_ROW_24_131
*897 TAP_TAPCELL_ROW_24_132
*898 TAP_TAPCELL_ROW_24_133
*899 TAP_TAPCELL_ROW_25_134
*900 TAP_TAPCELL_ROW_25_135
*901 TAP_TAPCELL_ROW_25_136
*902 TAP_TAPCELL_ROW_26_137
*903 TAP_TAPCELL_ROW_26_138
*904 TAP_TAPCELL_ROW_26_139
*905 TAP_TAPCELL_ROW_27_140
*906 TAP_TAPCELL_ROW_27_141
*907 TAP_TAPCELL_ROW_27_142
*908 TAP_TAPCELL_ROW_27_143
*909 TAP_TAPCELL_ROW_27_144
*910 TAP_TAPCELL_ROW_27_145
*911 TAP_TAPCELL_ROW_2_65
*912 TAP_TAPCELL_ROW_2_66
*913 TAP_TAPCELL_ROW_2_67
*914 TAP_TAPCELL_ROW_3_68
*915 TAP_TAPCELL_ROW_3_69
*916 TAP_TAPCELL_ROW_3_70
*917 TAP_TAPCELL_ROW_4_71
*918 TAP_TAPCELL_ROW_4_72
*919 TAP_TAPCELL_ROW_4_73
*920 TAP_TAPCELL_ROW_5_74
*921 TAP_TAPCELL_ROW_5_75
*922 TAP_TAPCELL_ROW_5_76
*923 TAP_TAPCELL_ROW_6_77
*924 TAP_TAPCELL_ROW_6_78
*925 TAP_TAPCELL_ROW_6_79
*926 TAP_TAPCELL_ROW_7_80
*927 TAP_TAPCELL_ROW_7_81
*928 TAP_TAPCELL_ROW_7_82
*929 TAP_TAPCELL_ROW_8_83
*930 TAP_TAPCELL_ROW_8_84
*931 TAP_TAPCELL_ROW_8_85
*932 TAP_TAPCELL_ROW_9_86
*933 TAP_TAPCELL_ROW_9_87
*934 TAP_TAPCELL_ROW_9_88
*935 _215_
*936 _216_
*937 _217_
*938 _218_
*939 _219_
*940 _220_
*941 _221_
*942 _222_
*943 _223_
*944 _224_
*945 _225_
*946 _226_
*947 _227_
*948 _228_
*949 _229_
*950 _230_
*951 _231_
*952 _232_
*953 _233_
*954 _234_
*955 _235_
*956 _236_
*957 _237_
*958 _238_
*959 _239_
*960 _240_
*961 _241_
*962 _242_
*963 _243_
*964 _244_
*965 _245_
*966 _246_
*967 _247_
*968 _248_
*969 _249_
*970 _250_
*971 _251_
*972 _252_
*973 _253_
*974 _254_
*975 _255_
*976 _256_
*977 _257_
*978 _258_
*979 _259_
*980 _260_
*981 _261_
*982 _262_
*983 _263_
*984 _264_
*985 _265_
*986 _266_
*987 _267_
*988 _268_
*989 _269_
*990 _270_
*991 _271_
*992 _272_
*993 _273_
*994 _274_
*995 _275_
*996 _276_
*997 _277_
*998 _278_
*999 _279_
*1000 _280_
*1001 _281_
*1002 _282_
*1003 _283_
*1004 _284_
*1005 _285_
*1006 _286_
*1007 _287_
*1008 _288_
*1009 _289_
*1010 _290_
*1011 _291_
*1012 _292_
*1013 _293_
*1014 _294_
*1015 _295_
*1016 _296_
*1017 _297_
*1018 _298_
*1019 _299_
*1020 _300_
*1021 _301_
*1022 _302_
*1023 _303_
*1024 _304_
*1025 _305_
*1026 _306_
*1027 _307_
*1028 _308_
*1029 _309_
*1030 _310_
*1031 _311_
*1032 _312_
*1033 _313_
*1034 _314_
*1035 _315_
*1036 _316_
*1037 _317_
*1038 _318_
*1039 _319_
*1040 _320_
*1041 _321_
*1042 _322_
*1043 _323_
*1044 _324_
*1045 _325_
*1046 _326_
*1047 _327_
*1048 _328_
*1049 _329_
*1050 _330_
*1051 _331_
*1052 _332_
*1053 _333_
*1054 _334_
*1055 _335_
*1056 _336_
*1057 _337_
*1058 _338_
*1059 _339_
*1060 _340_
*1061 _341_
*1062 _342_
*1063 _343_
*1064 _344_
*1065 _345_
*1066 _346_
*1067 _347_
*1068 _348_
*1069 _349_
*1070 _350_
*1071 _351_
*1072 _352_
*1073 _353_
*1074 _354_
*1075 _355_
*1076 _356_
*1077 _357_
*1078 _358_
*1079 _359_
*1080 _360_
*1081 _361_
*1082 _362_
*1083 _363_
*1084 _364_
*1085 _365_
*1086 _366_
*1087 _367_
*1088 _368_
*1089 _369_
*1090 _370_
*1091 _371_
*1092 _372_
*1093 _373_
*1094 _374_
*1095 _375_
*1096 _376_
*1097 _377_
*1098 _378_
*1099 _379_
*1100 _380_
*1101 _381_
*1102 _382_
*1103 _383_
*1104 _384_
*1105 _385_
*1106 _386_
*1107 _387_
*1108 _388_
*1109 _389_
*1110 _390_
*1111 _391_
*1112 _392_
*1113 _393_
*1114 _394_
*1115 _395_
*1116 _396_
*1117 _397_
*1118 _398_
*1119 _399_
*1120 _400_
*1121 _401_
*1122 _402_
*1123 _403_
*1124 _404_
*1125 _405_
*1126 _406_
*1127 _407_
*1128 _408_
*1129 _409_
*1130 _410_
*1131 _411_
*1132 _412_
*1133 _413_
*1134 _414_
*1135 _415_
*1136 _416_
*1137 _417_
*1138 _418_
*1139 _419_
*1140 _420_
*1141 _421_
*1142 _422_
*1143 _423_
*1144 _424_
*1145 _425_
*1146 _426_
*1147 _427_
*1148 _428_
*1149 _429_
*1150 _430_
*1151 _431_
*1152 _432_
*1153 _433_
*1154 _434_
*1155 _435_
*1156 _436_
*1157 _437_
*1158 _438_
*1159 _439_
*1160 _440_
*1161 _441_
*1162 _442_
*1163 _443_
*1164 _444_
*1165 _445_
*1166 _446_
*1167 _447_
*1168 _448_
*1169 _449_
*1170 _450_
*1171 _451_
*1172 _452_
*1173 _453_
*1174 _454_
*1175 _455_
*1176 _456_
*1177 _457_
*1178 _458_
*1179 _459_
*1180 _460_
*1181 _461_
*1182 _462_
*1183 _463_
*1184 _464_
*1185 clkbuf_0_CLK100MHZ
*1186 clkbuf_1_0__f_CLK100MHZ
*1187 clkbuf_1_1__f_CLK100MHZ
*1188 clkload0
*1189 input1
*1190 input2
*1191 output3
*1192 output4
*1193 output5
*1194 output6
*1195 output7
*1196 output8
*1197 output9
*1198 top_module_10
*1199 top_module_11
*1200 top_module_12
*1201 top_module_13

*PORTS
BTNR I
BTNU I
CLK100MHZ I
an[0] O
an[1] O
an[2] O
an[3] O
seg[0] O
seg[1] O
seg[2] O
seg[3] O
seg[4] O
seg[5] O
seg[6] O

*D_NET *1 0.000823069
*CONN
*P BTNR I
*I *1189:A I *D sky130_fd_sc_hd__clkbuf_2
*CAP
1 BTNR 0.000349054
2 *1189:A 0.000349054
3 *1189:A *147:16 1.94945e-05
4 *1189:A *152:42 8.27694e-05
5 *1189:A *168:55 2.26973e-05
*RES
1 BTNR *1189:A 20.891 
*END

*D_NET *2 0.000948747
*CONN
*P BTNU I
*I *1190:A I *D sky130_fd_sc_hd__buf_2
*CAP
1 BTNU 0.000426631
2 *1190:A 0.000426631
3 *1190:A *101:26 5.33005e-05
4 *1190:A *168:55 2.26973e-05
5 *1190:A *187:20 1.94879e-05
*RES
1 BTNU *1190:A 20.4803 
*END

*D_NET *3 0.0159287
*CONN
*P CLK100MHZ I
*I *1185:A I *D sky130_fd_sc_hd__clkbuf_16
*CAP
1 CLK100MHZ 0.00399441
2 *1185:A 0.00399441
3 *1185:A *1041:A0 0.00029943
4 *1185:A *1186:A 0.000340746
5 *1185:A *64:32 6.81861e-05
6 *1185:A *90:70 0.000347758
7 *1185:A *95:18 0.000781244
8 *1185:A *103:32 1.90936e-05
9 *1185:A *147:24 0.00182937
10 *1185:A *163:18 0.000111329
11 *1185:A *187:20 0.000886102
12 *1185:A *203:24 0.00219674
13 *1185:A *204:28 0.000487468
14 *1185:A *210:26 0.000221957
15 *1185:A *212:32 0.000290802
16 *1185:A *236:39 5.96516e-05
*RES
1 CLK100MHZ *1185:A 39.3108 
*END

*D_NET *6 0.00152504
*CONN
*P an[0] O
*I *1198:LO O *D sky130_fd_sc_hd__conb_1
*CAP
1 an[0] 0.000762521
2 *1198:LO 0.000762521
*RES
1 *1198:LO an[0] 25.3422 
*END

*D_NET *7 0.000883376
*CONN
*P an[1] O
*I *1199:HI O *D sky130_fd_sc_hd__conb_1
*CAP
1 an[1] 0.000400886
2 *1199:HI 0.000400886
3 an[1] *136:24 8.16045e-05
*RES
1 *1199:HI an[1] 18.4111 
*END

*D_NET *8 0.000566876
*CONN
*P an[2] O
*I *1200:HI O *D sky130_fd_sc_hd__conb_1
*CAP
1 an[2] 0.000283438
2 *1200:HI 0.000283438
3 an[2] *135:14 0
4 an[2] *224:12 0
*RES
1 *1200:HI an[2] 18.8021 
*END

*D_NET *9 0.000594871
*CONN
*P an[3] O
*I *1201:HI O *D sky130_fd_sc_hd__conb_1
*CAP
1 an[3] 0.000256623
2 *1201:HI 0.000256623
3 an[3] *1029:A1 2.06178e-05
4 an[3] *106:37 6.10068e-05
5 an[3] *128:22 0
*RES
1 *1201:HI an[3] 18.1949 
*END

*D_NET *10 0.000708213
*CONN
*P seg[0] O
*I *1191:X O *D sky130_fd_sc_hd__buf_1
*CAP
1 seg[0] 0.000310956
2 *1191:X 0.000310956
3 seg[0] *1029:A1 2.06178e-05
4 seg[0] *1050:A0 1.16198e-05
5 seg[0] *245:14 5.40624e-05
*RES
1 *1191:X seg[0] 18.1949 
*END

*D_NET *11 0.00068458
*CONN
*P seg[1] O
*I *1192:X O *D sky130_fd_sc_hd__buf_1
*CAP
1 seg[1] 0.000325884
2 *1192:X 0.000325884
3 seg[1] *1029:A1 2.06178e-05
4 seg[1] *1050:A0 1.21955e-05
*RES
1 *1192:X seg[1] 18.1949 
*END

*D_NET *12 0.00135748
*CONN
*P seg[2] O
*I *1193:X O *D sky130_fd_sc_hd__buf_1
*CAP
1 seg[2] 0.000501407
2 *1193:X 0.000501407
3 seg[2] *967:A 4.31969e-05
4 seg[2] *1050:S 1.34436e-05
5 seg[2] *48:36 8.12421e-05
6 seg[2] *76:32 9.1377e-05
7 seg[2] *166:26 9.48308e-05
8 seg[2] *212:60 3.05763e-05
*RES
1 *1193:X seg[2] 18.9309 
*END

*D_NET *13 0.000897818
*CONN
*P seg[3] O
*I *1194:X O *D sky130_fd_sc_hd__buf_1
*CAP
1 seg[3] 0.000427498
2 *1194:X 0.000427498
3 seg[3] *988:A 2.22043e-05
4 seg[3] *166:26 0
5 seg[3] *180:39 2.06178e-05
6 seg[3] *212:60 0
*RES
1 *1194:X seg[3] 18.4832 
*END

*D_NET *14 0.000720448
*CONN
*P seg[4] O
*I *1195:X O *D sky130_fd_sc_hd__buf_1
*CAP
1 seg[4] 0.000234191
2 *1195:X 0.000234191
3 seg[4] *128:12 2.18087e-05
4 seg[4] *150:44 0.000220654
5 seg[4] *216:79 0
6 seg[4] *245:20 9.60337e-06
*RES
1 *1195:X seg[4] 18.1949 
*END

*D_NET *15 0.000575088
*CONN
*P seg[5] O
*I *1196:X O *D sky130_fd_sc_hd__buf_1
*CAP
1 seg[5] 0.000195769
2 *1196:X 0.000195769
3 seg[5] *128:12 2.22043e-05
4 seg[5] *166:14 8.08501e-05
5 seg[5] *216:79 8.04948e-05
*RES
1 *1196:X seg[5] 18.1949 
*END

*D_NET *16 0.000801917
*CONN
*P seg[6] O
*I *1197:X O *D sky130_fd_sc_hd__buf_1
*CAP
1 seg[6] 0.000400959
2 *1197:X 0.000400959
3 seg[6] *28:32 0
4 seg[6] *166:14 0
*RES
1 *1197:X seg[6] 20.6235 
*END

*D_NET *17 0.0041814
*CONN
*I *1182:RESET_B I *D sky130_fd_sc_hd__dfrtp_2
*I *1154:Y O *D sky130_fd_sc_hd__inv_2
*CAP
1 *1182:RESET_B 0.000740629
2 *1154:Y 0.000740629
3 *1182:RESET_B *967:A 0.000500349
4 *1182:RESET_B *1080:A 1.33343e-05
5 *1182:RESET_B *1153:A 3.10863e-05
6 *1182:RESET_B *81:142 0.000145473
7 *1182:RESET_B *144:20 1.721e-05
8 *1182:RESET_B *189:34 0.000100248
9 *1182:RESET_B *195:12 7.6644e-05
10 *1182:RESET_B *206:34 0.000563292
11 *1182:RESET_B *235:10 6.26774e-05
12 *1182:RESET_B *250:78 0.000713096
13 *1182:RESET_B *260:36 0.000376486
14 *1182:RESET_B *260:42 0.000100248
*RES
1 *1154:Y *1182:RESET_B 38.0768 
*END

*D_NET *18 0.00242833
*CONN
*I *1183:RESET_B I *D sky130_fd_sc_hd__dfrtp_4
*I *1155:Y O *D sky130_fd_sc_hd__inv_2
*CAP
1 *1183:RESET_B 0.000796385
2 *1155:Y 0.000796385
3 *1183:RESET_B *956:A 9.59532e-06
4 *1183:RESET_B *981:B1 1.94945e-05
5 *1183:RESET_B *1023:A0 0
6 *1183:RESET_B *1183:CLK 0.000201889
7 *1183:RESET_B *1183:D 4.83461e-05
8 *1183:RESET_B *20:16 2.74988e-05
9 *1183:RESET_B *93:22 0
10 *1183:RESET_B *120:26 0
11 *1183:RESET_B *162:28 0
12 *1183:RESET_B *233:41 0.000333176
13 *1183:RESET_B *233:47 0.000118396
14 *1183:RESET_B *252:56 7.71654e-05
15 *1183:RESET_B *265:16 0
*RES
1 *1155:Y *1183:RESET_B 33.1661 
*END

*D_NET *19 0.0107036
*CONN
*I *1184:RESET_B I *D sky130_fd_sc_hd__dfrtp_1
*I *1156:Y O *D sky130_fd_sc_hd__inv_2
*CAP
1 *1184:RESET_B 0.00110771
2 *1156:Y 0.000748445
3 *19:12 0.00185615
4 *1184:RESET_B *1001:A 0.000811665
5 *1184:RESET_B *1021:A1 0.000554213
6 *1184:RESET_B *1021:A2 0.000474125
7 *1184:RESET_B *1051:S 9.0573e-05
8 *1184:RESET_B *1120:S 0.00010807
9 *1184:RESET_B *42:10 0.00111604
10 *1184:RESET_B *160:20 0.000407197
11 *1184:RESET_B *221:43 0.00013415
12 *1184:RESET_B *233:147 4.96254e-05
13 *1184:RESET_B *237:18 0.00013324
14 *19:12 *1083:B 0.00015244
15 *19:12 *1090:A 2.2355e-05
16 *19:12 *1091:A0 0.00167913
17 *19:12 *1120:S 0.000127084
18 *19:12 *1156:A 3.31717e-05
19 *19:12 *42:10 7.93373e-05
20 *19:12 *140:12 0.00016163
21 *19:12 *220:24 9.84729e-05
22 *19:12 *239:39 0.000302404
23 *19:12 *250:29 0.000456379
*RES
1 *1156:Y *19:12 39.6036 
2 *19:12 *1184:RESET_B 35.7946 
*END

*D_NET *20 0.0056941
*CONN
*I *1157:D I *D sky130_fd_sc_hd__dfxtp_1
*I *1086:X O *D sky130_fd_sc_hd__clkbuf_1
*CAP
1 *1157:D 0
2 *1086:X 0.00109657
3 *20:16 0.00109657
4 *20:16 *1000:B1 9.15842e-06
5 *20:16 *1040:S 2.19907e-05
6 *20:16 *1048:B 0.000259324
7 *20:16 *1067:B 6.10324e-05
8 *20:16 *1076:A1 0.000121549
9 *20:16 *1161:D 0.000423883
10 *20:16 *1174:D 0.00103031
11 *20:16 *1183:CLK 0.000216386
12 *20:16 *134:10 0.000105633
13 *20:16 *233:41 0.000424014
14 *20:16 *233:47 0.000551902
15 *20:16 *233:137 0.000124697
16 *20:16 *233:143 4.23557e-05
17 *20:16 *255:71 8.12221e-05
18 *1183:RESET_B *20:16 2.74988e-05
*RES
1 *1086:X *20:16 45.3759 
2 *20:16 *1157:D 9.3 
*END

*D_NET *21 0.00920906
*CONN
*I *1158:D I *D sky130_fd_sc_hd__dfxtp_1
*I *1088:X O *D sky130_fd_sc_hd__clkbuf_1
*CAP
1 *1158:D 0
2 *1088:X 0.00208763
3 *21:34 0.00208763
4 *21:34 *952:D 0.000228495
5 *21:34 *1009:A2 4.08749e-05
6 *21:34 *1018:A 3.27955e-05
7 *21:34 *1025:B1 0.000865191
8 *21:34 *1177:D 5.96446e-05
9 *21:34 *46:20 9.10327e-05
10 *21:34 *83:20 0.000128253
11 *21:34 *83:48 8.71197e-05
12 *21:34 *84:81 2.4231e-05
13 *21:34 *100:65 0.000194617
14 *21:34 *104:10 7.46415e-05
15 *21:34 *120:76 0.000141955
16 *21:34 *122:37 8.81866e-05
17 *21:34 *141:36 4.926e-05
18 *21:34 *145:75 0.000486953
19 *21:34 *146:26 6.99373e-05
20 *21:34 *157:18 0.000162899
21 *21:34 *167:32 9.23226e-05
22 *21:34 *174:73 8.6281e-05
23 *21:34 *227:51 8.60828e-05
24 *21:34 *247:18 0.000560458
25 *21:34 *247:71 0.00138258
*RES
1 *1088:X *21:34 43.3173 
2 *21:34 *1158:D 9.3 
*END

*D_NET *22 0.0096484
*CONN
*I *1159:D I *D sky130_fd_sc_hd__dfxtp_1
*I *1090:X O *D sky130_fd_sc_hd__clkbuf_1
*CAP
1 *1159:D 0.00197436
2 *1090:X 0.000430448
3 *22:12 0.0024048
4 *1159:D *944:A 5.33005e-05
5 *1159:D *1031:A 8.12221e-05
6 *1159:D *1171:D 0.000442138
7 *1159:D *1184:D 4.58194e-05
8 *1159:D *69:14 0.000256584
9 *1159:D *128:44 5.49995e-05
10 *1159:D *133:8 5.95474e-05
11 *1159:D *161:30 0.00160058
12 *1159:D *256:22 9.61497e-05
13 *22:12 *981:A3 1.31516e-05
14 *22:12 *1048:A 0.000226833
15 *22:12 *1051:A0 9.39529e-05
16 *22:12 *1102:B 9.58126e-05
17 *22:12 *1124:A1 0.000111243
18 *22:12 *1145:A 0.00110324
19 *22:12 *57:70 2.10756e-05
20 *22:12 *139:18 0.000409633
21 *22:12 *153:18 7.35062e-05
*RES
1 *1090:X *22:12 33.6393 
2 *22:12 *1159:D 42.3759 
*END

*D_NET *23 0.021747
*CONN
*I *1160:D I *D sky130_fd_sc_hd__dfxtp_1
*I *1092:X O *D sky130_fd_sc_hd__buf_1
*CAP
1 *1160:D 6.93914e-06
2 *1092:X 0.00404491
3 *23:28 0.00405185
4 *1160:D *233:27 4.87669e-06
5 *1160:D *236:12 1.64343e-05
6 *23:28 *981:A3 0.00273145
7 *23:28 *1065:A 0.00148409
8 *23:28 *1079:B1 0.000132162
9 *23:28 *28:26 0.000838545
10 *23:28 *45:26 0.000174062
11 *23:28 *95:18 4.65519e-05
12 *23:28 *117:12 0.00229638
13 *23:28 *130:39 0.0012134
14 *23:28 *203:24 0.0028128
15 *23:28 *204:28 4.8817e-05
16 *23:28 *216:14 0
17 *23:28 *228:24 0.000128558
18 *23:28 *239:64 0.00171516
*RES
1 *1092:X *23:28 47.9495 
2 *23:28 *1160:D 13.9652 
*END

*D_NET *24 0.0156102
*CONN
*I *1161:D I *D sky130_fd_sc_hd__dfxtp_1
*I *1104:X O *D sky130_fd_sc_hd__buf_1
*CAP
1 *1161:D 0.000988276
2 *1104:X 0.0029426
3 *24:26 0.00393088
4 *1161:D *1161:CLK 0.000226835
5 *1161:D *1174:D 0.000273239
6 *1161:D *1183:CLK 9.59918e-05
7 *1161:D *57:70 0.000249378
8 *1161:D *104:22 0.000485012
9 *1161:D *201:116 0.000107015
10 *1161:D *210:26 6.54117e-05
11 *1161:D *236:12 0.000327077
12 *1161:D *252:56 0.000211888
13 *24:26 *985:A1 0.000229981
14 *24:26 *1003:A_N 5.7238e-05
15 *24:26 *1018:A 6.57032e-05
16 *24:26 *1085:S 4.79414e-05
17 *24:26 *1117:A 2.30116e-06
18 *24:26 *63:30 2.11055e-05
19 *24:26 *81:142 2.27209e-05
20 *24:26 *84:81 0.000875288
21 *24:26 *90:70 3.79901e-06
22 *24:26 *120:76 4.12879e-05
23 *24:26 *198:24 7.21509e-05
24 *24:26 *205:22 0.000379167
25 *24:26 *234:16 0.000173132
26 *24:26 *238:70 0.00329089
27 *20:16 *1161:D 0.000423883
*RES
1 *1104:X *24:26 41.0914 
2 *24:26 *1161:D 39.8089 
*END

*D_NET *25 0.00513985
*CONN
*I *1162:D I *D sky130_fd_sc_hd__dfxtp_1
*I *1108:X O *D sky130_fd_sc_hd__clkbuf_1
*CAP
1 *1162:D 0.000784564
2 *1108:X 0.000784564
3 *1162:D *1007:A_N 5.33005e-05
4 *1162:D *1075:A1 0.000338758
5 *1162:D *1140:A 1.64343e-05
6 *1162:D *34:28 0.000906024
7 *1162:D *62:14 0.0003866
8 *1162:D *83:94 1.46231e-05
9 *1162:D *123:22 3.32132e-06
10 *1162:D *174:73 0.000280643
11 *1162:D *174:83 0.000363144
12 *1162:D *234:112 3.17987e-05
13 *1162:D *236:39 0.00117607
*RES
1 *1108:X *1162:D 49.8009 
*END

*D_NET *26 0.0226545
*CONN
*I *1163:D I *D sky130_fd_sc_hd__dfxtp_1
*I *1110:X O *D sky130_fd_sc_hd__buf_1
*CAP
1 *1163:D 0.000948992
2 *1110:X 0.00520877
3 *26:28 0.00615776
4 *1163:D *956:A 0.000232194
5 *1163:D *1016:B2 6.71794e-05
6 *1163:D *1023:A0 0.000725916
7 *1163:D *1076:A1 0.000270219
8 *1163:D *1130:A 0.000375884
9 *1163:D *1130:C 0.000235651
10 *1163:D *1136:A 0.000133178
11 *1163:D *134:10 0
12 *1163:D *134:33 0
13 *1163:D *138:34 0.000120283
14 *1163:D *233:47 0
15 *1163:D *243:20 4.32258e-05
16 *26:28 *957:B 0.000105862
17 *26:28 *988:A 0.00035401
18 *26:28 *1016:A2 0.00199997
19 *26:28 *1016:B2 0.00039342
20 *26:28 *48:36 0.0029421
21 *26:28 *51:14 5.75147e-05
22 *26:28 *79:12 0
23 *26:28 *80:38 0.000353986
24 *26:28 *96:18 8.76694e-05
25 *26:28 *131:36 0.000474606
26 *26:28 *150:44 0.000375571
27 *26:28 *184:14 0.000294823
28 *26:28 *205:24 5.03585e-05
29 *26:28 *243:20 0.000289573
30 *26:28 *260:42 0.000355732
*RES
1 *1110:X *26:28 47.7531 
2 *26:28 *1163:D 36.2777 
*END

*D_NET *27 0.00855549
*CONN
*I *1164:D I *D sky130_fd_sc_hd__dfxtp_1
*I *1112:X O *D sky130_fd_sc_hd__clkbuf_1
*CAP
1 *1164:D 0.000547723
2 *1112:X 0.00111433
3 *27:18 0.00166206
4 *1164:D *1164:CLK 0.000126389
5 *1164:D *82:66 0.000161289
6 *1164:D *205:57 0.000292612
7 *1164:D *269:8 0.0011309
8 *27:18 *1016:B2 0.000166664
9 *27:18 *1052:A3 0.000107222
10 *27:18 *1124:A0 0.000603968
11 *27:18 *1136:B 0.000143128
12 *27:18 *45:26 3.29959e-05
13 *27:18 *130:10 0.000184717
14 *27:18 *130:39 1.04707e-05
15 *27:18 *147:24 0.00117869
16 *27:18 *161:46 0.000436106
17 *27:18 *163:18 0.000627476
18 *27:18 *183:10 2.87478e-05
*RES
1 *1112:X *27:18 43.9872 
2 *27:18 *1164:D 24.8937 
*END

*D_NET *28 0.0305952
*CONN
*I *1165:D I *D sky130_fd_sc_hd__dfxtp_1
*I *1114:X O *D sky130_fd_sc_hd__buf_1
*CAP
1 *1165:D 0.000664116
2 *1114:X 0.000907987
3 *28:32 0.00148248
4 *28:26 0.00635083
5 *28:24 0.00648349
6 *28:16 0.00185901
7 *1165:D *260:8 7.34668e-05
8 *28:16 *1019:B 0.000116032
9 *28:16 *1076:A1 9.15842e-06
10 *28:16 *1082:A 0.000690711
11 *28:16 *1175:D 7.58841e-05
12 *28:16 *1177:D 0.000185946
13 *28:16 *109:26 0.000102507
14 *28:16 *139:18 8.17663e-05
15 *28:16 *249:33 0
16 *28:24 *956:A 0
17 *28:24 *1101:B 2.11419e-05
18 *28:24 *1124:A1 0.000451692
19 *28:24 *1136:A 0
20 *28:24 *1179:CLK 0.000181885
21 *28:24 *215:12 0.00112903
22 *28:26 *239:64 0.00403859
23 *28:32 *1197:A 0
24 *28:32 *30:16 0.000154575
25 *28:32 *150:48 0.00217107
26 *28:32 *166:26 0
27 *28:32 *182:41 0.00239008
28 *28:32 *216:81 0.000135187
29 seg[6] *28:32 0
30 *23:28 *28:26 0.000838545
*RES
1 *1114:X *28:16 39.8 
2 *28:16 *28:24 26.4464 
3 *28:24 *28:26 73.6429 
4 *28:26 *28:32 47.375 
5 *28:32 *1165:D 18.9116 
*END

*D_NET *29 0.00916687
*CONN
*I *1166:D I *D sky130_fd_sc_hd__dfxtp_1
*I *1116:X O *D sky130_fd_sc_hd__clkbuf_1
*CAP
1 *1166:D 0.00103669
2 *1116:X 0.000809144
3 *29:20 0.00184583
4 *1166:D *1011:A2 0.000606304
5 *1166:D *1116:A 0.000184072
6 *1166:D *49:61 0.00039121
7 *1166:D *81:92 0.00134476
8 *1166:D *155:63 0.000218845
9 *1166:D *201:52 7.5088e-05
10 *1166:D *234:95 8.13309e-05
11 *1166:D *250:64 0.000542883
12 *1166:D *255:38 0.000806559
13 *29:20 *1124:A0 7.36733e-05
14 *29:20 *1175:D 0.000262498
15 *29:20 *104:22 7.36733e-05
16 *29:20 *137:20 5.44353e-05
17 *29:20 *155:133 0.000117673
18 *29:20 *227:18 0.000642199
*RES
1 *1116:X *29:20 38.8536 
2 *29:20 *1166:D 47.8402 
*END

*D_NET *30 0.0160924
*CONN
*I *1167:D I *D sky130_fd_sc_hd__dfxtp_1
*I *1121:X O *D sky130_fd_sc_hd__buf_1
*CAP
1 *1167:D 0.00101242
2 *1121:X 0.00166717
3 *30:16 0.0028703
4 *30:14 0.00352506
5 *1167:D *989:A 0.000121894
6 *1167:D *989:B_N 0.000140133
7 *1167:D *1092:A 0.0001556
8 *1167:D *126:28 0.00146006
9 *1167:D *128:12 2.22999e-05
10 *1167:D *166:14 0.00011307
11 *1167:D *206:18 7.57394e-05
12 *30:14 *1054:A 4.47024e-05
13 *30:14 *1055:A3 7.89362e-05
14 *30:14 *1089:A1 2.29112e-05
15 *30:14 *135:14 1.06641e-05
16 *30:14 *174:45 0.000141935
17 *30:14 *216:85 0
18 *30:16 *216:81 0.00447492
19 *28:32 *30:16 0.000154575
*RES
1 *1121:X *30:14 44.0857 
2 *30:14 *30:16 59.625 
3 *30:16 *1167:D 39.175 
*END

*D_NET *31 0.0110098
*CONN
*I *1168:D I *D sky130_fd_sc_hd__dfxtp_1
*I *1123:X O *D sky130_fd_sc_hd__clkbuf_1
*CAP
1 *1168:D 0.000411017
2 *1123:X 0.000933809
3 *31:28 0.00164886
4 *31:12 0.00217165
5 *1168:D *1011:A2 0.000162389
6 *1168:D *1035:B1 2.96226e-05
7 *1168:D *1063:B 1.58163e-05
8 *1168:D *1074:A1 4.17433e-05
9 *1168:D *1074:A2 9.75337e-06
10 *1168:D *1128:A0 6.28203e-05
11 *1168:D *1168:CLK 0.000124582
12 *1168:D *49:61 4.25864e-05
13 *1168:D *201:52 0.00035835
14 *1168:D *210:49 0.000261799
15 *1168:D *230:61 0.000660401
16 *1168:D *230:86 2.09413e-05
17 *31:12 *1024:A 9.58689e-05
18 *31:12 *1052:A1 5.98903e-05
19 *31:12 *1113:S 1.63801e-05
20 *31:12 *77:145 9.44309e-06
21 *31:12 *112:57 0.000188188
22 *31:12 *118:24 2.06531e-05
23 *31:12 *163:18 0.000139287
24 *31:12 *191:8 9.56233e-05
25 *31:28 *1011:A2 4.08508e-05
26 *31:28 *1025:A2 5.18498e-05
27 *31:28 *1025:A3 4.15592e-05
28 *31:28 *1150:A1 5.33072e-05
29 *31:28 *1151:A 0.000472886
30 *31:28 *1186:A 0.000139632
31 *31:28 *43:26 4.19535e-05
32 *31:28 *93:53 0.000565626
33 *31:28 *115:14 0.000679055
34 *31:28 *150:10 5.05056e-05
35 *31:28 *150:44 0.000193534
36 *31:28 *191:124 0.000314687
37 *31:28 *223:54 0.00011333
38 *31:28 *227:51 0.000136891
39 *31:28 *234:95 4.87854e-05
40 *31:28 *247:18 0
41 *31:28 *258:24 0.000112438
42 *31:28 *258:34 0.00037147
*RES
1 *1123:X *31:12 26.3893 
2 *31:12 *31:28 47.2679 
3 *31:28 *1168:D 25.3402 
*END

*D_NET *32 0.0164709
*CONN
*I *1169:D I *D sky130_fd_sc_hd__dfxtp_1
*I *1125:X O *D sky130_fd_sc_hd__buf_1
*CAP
1 *1169:D 0
2 *1125:X 0.00214812
3 *32:64 0.0016392
4 *32:34 0.00378732
5 *32:34 *1000:B1 0.000376225
6 *32:34 *1026:S 0.000135399
7 *32:34 *1093:B1 0.0012266
8 *32:34 *36:22 0.000664277
9 *32:34 *64:68 0.0012147
10 *32:34 *64:88 1.07995e-05
11 *32:34 *73:16 1.54436e-05
12 *32:34 *101:26 0.00178529
13 *32:34 *113:16 0.0013669
14 *32:34 *115:42 0
15 *32:34 *118:59 6.28948e-05
16 *32:34 *124:26 0
17 *32:34 *234:18 0.000136388
18 *32:34 *270:30 2.03997e-05
19 *32:64 *1026:A0 9.45036e-05
20 *32:64 *1026:S 8.19004e-05
21 *32:64 *1132:B 0
22 *32:64 *1140:A 0.000184603
23 *32:64 *1169:CLK 0.000230368
24 *32:64 *43:26 0
25 *32:64 *81:28 4.21517e-05
26 *32:64 *90:70 5.55218e-05
27 *32:64 *103:32 8.20494e-05
28 *32:64 *121:85 1.35511e-05
29 *32:64 *202:14 0.000135028
30 *32:64 *230:61 0
31 *32:64 *236:39 0.000239351
32 *32:64 *236:156 0.000442594
33 *32:64 *237:45 0.000136676
34 *32:64 *252:48 0
35 *32:64 *270:30 0.000142592
*RES
1 *1125:X *32:34 48.3995 
2 *32:34 *32:64 41.1964 
3 *32:64 *1169:D 9.3 
*END

*D_NET *33 0.00706146
*CONN
*I *1170:D I *D sky130_fd_sc_hd__dfxtp_1
*I *1127:X O *D sky130_fd_sc_hd__clkbuf_1
*CAP
1 *1170:D 0.000354717
2 *1127:X 0.000969932
3 *33:16 0.00132465
4 *1170:D *938:A 0.000123715
5 *1170:D *1016:A1 0.00024439
6 *1170:D *1170:CLK 0.000124325
7 *1170:D *96:18 0.000206965
8 *1170:D *126:18 4.84073e-05
9 *33:16 *975:A_N 1.73088e-05
10 *33:16 *975:B 0.000576527
11 *33:16 *1027:A 0.000164097
12 *33:16 *1027:B 0.000162511
13 *33:16 *1127:A 0.000306311
14 *33:16 *41:20 0.000384392
15 *33:16 *77:145 0.00047652
16 *33:16 *95:53 0.000558014
17 *33:16 *151:27 0.00030196
18 *33:16 *155:34 0.000136958
19 *33:16 *183:34 0.000519619
20 *33:16 *236:100 6.01382e-05
*RES
1 *1127:X *33:16 44.0143 
2 *33:16 *1170:D 19.3357 
*END

*D_NET *34 0.0072828
*CONN
*I *1171:D I *D sky130_fd_sc_hd__dfxtp_1
*I *1129:X O *D sky130_fd_sc_hd__clkbuf_1
*CAP
1 *1171:D 0.000192349
2 *1129:X 0.00163028
3 *34:28 0.00182263
4 *34:28 *981:B1 0.000132509
5 *34:28 *990:A 0.000798402
6 *34:28 *39:28 0.000561453
7 *34:28 *43:26 0.000191113
8 *34:28 *46:20 0
9 *34:28 *83:30 0.000126744
10 *34:28 *100:26 8.85276e-05
11 *34:28 *154:18 1.708e-05
12 *34:28 *173:38 0.000153442
13 *34:28 *234:112 0.000196471
14 *34:28 *236:39 2.36309e-05
15 *1159:D *1171:D 0.000442138
16 *1162:D *34:28 0.000906024
*RES
1 *1129:X *34:28 45.9576 
2 *34:28 *1171:D 13.5723 
*END

*D_NET *35 0.00308356
*CONN
*I *1172:D I *D sky130_fd_sc_hd__dfxtp_1
*I *1133:X O *D sky130_fd_sc_hd__clkbuf_1
*CAP
1 *1172:D 0.000824312
2 *1133:X 0.000824312
3 *1172:D *1011:B1 0.000102589
4 *1172:D *1104:A 0.000179913
5 *1172:D *48:36 0
6 *1172:D *59:18 0.000104282
7 *1172:D *81:92 2.99471e-05
8 *1172:D *118:24 0
9 *1172:D *131:36 9.60337e-06
10 *1172:D *145:41 1.13883e-05
11 *1172:D *183:34 0
12 *1172:D *198:18 0.000856326
13 *1172:D *212:60 0.000140886
14 *1172:D *234:16 0
15 *1172:D *234:18 0
*RES
1 *1133:X *1172:D 43.1402 
*END

*D_NET *36 0.00529854
*CONN
*I *1173:D I *D sky130_fd_sc_hd__dfxtp_1
*I *1135:X O *D sky130_fd_sc_hd__clkbuf_1
*CAP
1 *1173:D 0
2 *1135:X 0.00141396
3 *36:22 0.00141396
4 *36:22 *1026:S 0.000192249
5 *36:22 *1039:A1 0.000186837
6 *36:22 *54:12 0.000222996
7 *36:22 *66:20 0
8 *36:22 *96:28 0.000829115
9 *36:22 *151:27 3.68898e-05
10 *36:22 *171:40 6.38649e-05
11 *36:22 *205:24 0
12 *36:22 *209:18 0.000178847
13 *36:22 *217:18 9.55468e-05
14 *32:34 *36:22 0.000664277
*RES
1 *1135:X *36:22 43.483 
2 *36:22 *1173:D 9.3 
*END

*D_NET *37 0.0114019
*CONN
*I *1174:D I *D sky130_fd_sc_hd__dfxtp_1
*I *1137:X O *D sky130_fd_sc_hd__buf_1
*CAP
1 *1174:D 0.00122036
2 *1137:X 0.00165221
3 *37:12 0.00287257
4 *1174:D *1000:B1 5.05438e-05
5 *1174:D *1034:A2 0.000137393
6 *1174:D *1102:B 0.000102253
7 *1174:D *1111:S 2.02794e-05
8 *1174:D *1112:A 0.000124062
9 *1174:D *57:70 0.00026797
10 *1174:D *104:22 1.59215e-05
11 *1174:D *169:16 0.00011969
12 *1174:D *227:18 1.82462e-05
13 *1174:D *228:24 0.000183477
14 *1174:D *230:61 0.000113936
15 *1174:D *231:10 3.63866e-05
16 *1174:D *233:77 8.82363e-05
17 *37:12 *950:A 0.000317228
18 *37:12 *1144:S 0.000690506
19 *37:12 *89:22 1.26641e-05
20 *37:12 *96:42 2.24079e-05
21 *37:12 *106:95 2.06279e-05
22 *37:12 *132:12 0.000108724
23 *37:12 *162:28 0.000183582
24 *37:12 *167:10 0.00131798
25 *37:12 *201:116 0.000205772
26 *37:12 *237:18 0.000195335
27 *1161:D *1174:D 0.000273239
28 *20:16 *1174:D 0.00103031
*RES
1 *1137:X *37:12 48.3714 
2 *37:12 *1174:D 42.8 
*END

*D_NET *38 0.00302434
*CONN
*I *1175:D I *D sky130_fd_sc_hd__dfxtp_1
*I *1139:X O *D sky130_fd_sc_hd__clkbuf_1
*CAP
1 *1175:D 0.00066325
2 *1139:X 0.00066325
3 *1175:D *1019:B 7.74068e-05
4 *1175:D *1116:A 0.000471949
5 *1175:D *173:20 0.000208475
6 *1175:D *233:47 0.00060163
7 *28:16 *1175:D 7.58841e-05
8 *29:20 *1175:D 0.000262498
*RES
1 *1139:X *1175:D 41.4795 
*END

*D_NET *39 0.0163254
*CONN
*I *1176:D I *D sky130_fd_sc_hd__dfxtp_1
*I *1141:X O *D sky130_fd_sc_hd__clkbuf_1
*CAP
1 *1176:D 0
2 *1141:X 0.00344688
3 *39:28 0.00344688
4 *39:28 *944:B 4.65519e-05
5 *39:28 *958:B 8.5552e-05
6 *39:28 *973:A1 1.64343e-05
7 *39:28 *1005:C 1.74503e-05
8 *39:28 *1021:B1 0.00215907
9 *39:28 *1093:B1 0.000113738
10 *39:28 *1094:A1 2.08417e-06
11 *39:28 *50:18 9.64152e-05
12 *39:28 *76:32 0.000225486
13 *39:28 *88:54 0.000766764
14 *39:28 *106:37 0.000394777
15 *39:28 *106:57 0.00168361
16 *39:28 *108:49 0.00182782
17 *39:28 *119:30 0.0003683
18 *39:28 *173:38 0.000475566
19 *39:28 *174:29 9.45051e-05
20 *39:28 *181:28 4.65519e-05
21 *39:28 *207:18 0.000400038
22 *39:28 *252:56 2.11419e-05
23 *39:28 *263:44 2.83129e-05
24 *34:28 *39:28 0.000561453
*RES
1 *1141:X *39:28 48.6935 
2 *39:28 *1176:D 9.3 
*END

*D_NET *40 0.0153882
*CONN
*I *1177:D I *D sky130_fd_sc_hd__dfxtp_1
*I *1145:X O *D sky130_fd_sc_hd__clkbuf_1
*CAP
1 *1177:D 0.00401248
2 *1145:X 0.00401248
3 *1177:D *936:A 1.74503e-05
4 *1177:D *1019:B 0.000187525
5 *1177:D *1025:A3 4.65519e-05
6 *1177:D *1025:B1 2.34861e-05
7 *1177:D *1076:A1 2.58517e-05
8 *1177:D *1082:A 9.41642e-05
9 *1177:D *1103:A1 0.000244141
10 *1177:D *1111:S 0.000618696
11 *1177:D *1126:A0 0.000128972
12 *1177:D *1177:CLK 1.64343e-05
13 *1177:D *57:50 0.000674357
14 *1177:D *57:70 9.31134e-05
15 *1177:D *65:28 0.000181284
16 *1177:D *73:16 1.90936e-05
17 *1177:D *84:81 7.9823e-05
18 *1177:D *90:24 2.63501e-05
19 *1177:D *90:70 1.23462e-05
20 *1177:D *100:65 0.00158661
21 *1177:D *115:42 0.00107024
22 *1177:D *120:76 3.29339e-05
23 *1177:D *121:85 0.000213174
24 *1177:D *130:78 2.06112e-05
25 *1177:D *155:63 9.00864e-05
26 *1177:D *212:32 0.00156518
27 *1177:D *238:39 4.92214e-05
28 *21:34 *1177:D 5.96446e-05
29 *28:16 *1177:D 0.000185946
*RES
1 *1145:X *1177:D 47.842 
*END

*D_NET *41 0.00675789
*CONN
*I *1178:D I *D sky130_fd_sc_hd__dfxtp_1
*I *1147:X O *D sky130_fd_sc_hd__clkbuf_1
*CAP
1 *1178:D 0.000162539
2 *1147:X 0.00135062
3 *41:20 0.00151316
4 *1178:D *1009:A1 7.28578e-05
5 *1178:D *95:73 0.000219289
6 *1178:D *234:163 0.000570629
7 *41:20 *1066:A 0.000284365
8 *41:20 *1117:D_N 6.25562e-05
9 *41:20 *1126:A0 7.69776e-06
10 *41:20 *1146:A0 7.29646e-05
11 *41:20 *1177:CLK 0
12 *41:20 *56:22 0
13 *41:20 *65:28 1.52796e-05
14 *41:20 *78:16 0
15 *41:20 *157:18 4.00349e-05
16 *41:20 *191:79 0.000238853
17 *41:20 *198:28 4.56775e-05
18 *41:20 *223:54 7.23766e-05
19 *41:20 *257:49 0.000414705
20 *41:20 *263:44 0.00105893
21 *41:20 *268:30 0.000170971
22 *33:16 *41:20 0.000384392
*RES
1 *1147:X *41:20 45.2286 
2 *41:20 *1178:D 14.8045 
*END

*D_NET *42 0.0109094
*CONN
*I *1179:D I *D sky130_fd_sc_hd__dfxtp_1
*I *1149:X O *D sky130_fd_sc_hd__buf_1
*CAP
1 *1179:D 8.9213e-06
2 *1149:X 0.000278708
3 *42:10 0.00148724
4 *42:8 0.00175702
5 *1179:D *1179:CLK 1.64343e-05
6 *42:10 *275:DIODE 2.06178e-05
7 *42:10 *1021:B1 0.000137834
8 *42:10 *1051:S 0.000407856
9 *42:10 *1091:A0 0.00175077
10 *42:10 *1156:A 0.00134508
11 *42:10 *200:30 2.06112e-05
12 *42:10 *201:116 0.000103437
13 *42:10 *215:12 0
14 *42:10 *216:20 0.000136927
15 *42:10 *221:43 0.000324358
16 *42:10 *238:12 0.00191824
17 *1184:RESET_B *42:10 0.00111604
18 *19:12 *42:10 7.93373e-05
*RES
1 *1149:X *42:8 17.6214 
2 *42:8 *42:10 55.9821 
3 *42:10 *1179:D 13.9652 
*END

*D_NET *43 0.0135566
*CONN
*I *1180:D I *D sky130_fd_sc_hd__dfxtp_1
*I *1151:X O *D sky130_fd_sc_hd__buf_1
*CAP
1 *1180:D 0
2 *1151:X 0.00154803
3 *43:36 0.00126276
4 *43:26 0.00281079
5 *43:26 *981:B1 0.00016763
6 *43:26 *990:A 0.000334518
7 *43:26 *1025:A3 2.52099e-05
8 *43:26 *1085:S 0.000514961
9 *43:26 *54:12 0.000302956
10 *43:26 *57:50 0.000266484
11 *43:26 *100:26 4.06461e-05
12 *43:26 *100:65 0.000271596
13 *43:26 *129:26 4.60232e-06
14 *43:26 *155:63 0.00105254
15 *43:26 *228:24 0.000495787
16 *43:26 *236:156 0
17 *43:26 *252:48 4.1611e-05
18 *43:26 *258:24 4.19535e-05
19 *43:36 *948:A 0.000111169
20 *43:36 *1094:A1 9.58181e-05
21 *43:36 *1132:A 0.000750123
22 *43:36 *1140:A 0.000392933
23 *43:36 *1142:C 0.000363371
24 *43:36 *96:42 0.00049838
25 *43:36 *100:26 9.65768e-05
26 *43:36 *158:20 0.000257134
27 *43:36 *198:54 9.58126e-05
28 *43:36 *270:10 0.00148018
29 *31:28 *43:26 4.19535e-05
30 *32:64 *43:26 0
31 *34:28 *43:26 0.000191113
*RES
1 *1151:X *43:26 42.0939 
2 *43:26 *43:36 42.3973 
3 *43:36 *1180:D 9.3 
*END

*D_NET *44 0.0164664
*CONN
*I *1181:D I *D sky130_fd_sc_hd__dfxtp_1
*I *1153:X O *D sky130_fd_sc_hd__buf_1
*CAP
1 *1181:D 0
2 *1153:X 0.00363035
3 *44:22 0.00363035
4 *44:22 *956:A 4.75671e-06
5 *44:22 *1000:B1 0.000307768
6 *44:22 *1076:A3 8.72105e-05
7 *44:22 *1093:B1 0.00105565
8 *44:22 *1124:A1 4.58835e-05
9 *44:22 *1127:A 5.52238e-05
10 *44:22 *1179:CLK 9.25014e-06
11 *44:22 *64:68 3.01346e-05
12 *44:22 *73:16 8.5717e-05
13 *44:22 *80:38 5.25711e-05
14 *44:22 *85:20 0.000393137
15 *44:22 *101:26 0.000219564
16 *44:22 *127:31 1.90936e-05
17 *44:22 *233:53 3.45763e-05
18 *44:22 *236:73 3.28822e-05
19 *44:22 *243:20 0.00524656
20 *44:22 *250:29 2.53061e-05
21 *44:22 *250:64 0.000632439
22 *44:22 *259:14 0.000282954
23 *44:22 *259:50 0.000494266
24 *44:22 *269:26 9.07601e-05
*RES
1 *1153:X *44:22 45.4107 
2 *44:22 *1181:D 9.3 
*END

*D_NET *45 0.0169778
*CONN
*I *1182:D I *D sky130_fd_sc_hd__dfrtp_2
*I *947:X O *D sky130_fd_sc_hd__xor2_1
*CAP
1 *1182:D 0.000343585
2 *947:X 0.00423985
3 *45:26 0.00458343
4 *1182:D *1182:CLK 2.12005e-05
5 *1182:D *145:41 5.42547e-05
6 *1182:D *234:65 0.000397024
7 *45:26 *981:A3 2.42845e-05
8 *45:26 *1065:A 0.0033983
9 *45:26 *1068:A 6.98029e-05
10 *45:26 *1136:B 0.000305127
11 *45:26 *55:14 1.63333e-05
12 *45:26 *79:12 0.000421029
13 *45:26 *125:32 0.000139297
14 *45:26 *130:78 0.00013248
15 *45:26 *161:46 0
16 *45:26 *166:14 0.000421082
17 *45:26 *169:16 5.73241e-05
18 *45:26 *187:20 0.000362346
19 *45:26 *191:54 0.000988708
20 *45:26 *197:46 0.000187339
21 *45:26 *212:60 1.75318e-05
22 *45:26 *215:14 0.000411346
23 *45:26 *220:24 8.9576e-05
24 *45:26 *234:65 8.94769e-05
25 *23:28 *45:26 0.000174062
26 *27:18 *45:26 3.29959e-05
*RES
1 *947:X *45:26 49.8345 
2 *45:26 *1182:D 15.3179 
*END

*D_NET *46 0.0188525
*CONN
*I *1183:D I *D sky130_fd_sc_hd__dfrtp_4
*I *946:Y O *D sky130_fd_sc_hd__nor2_1
*CAP
1 *1183:D 0.00185102
2 *946:Y 0.00309301
3 *46:20 0.00494403
4 *1183:D *1079:B1 8.49023e-05
5 *1183:D *1183:CLK 0.000220519
6 *1183:D *191:128 0.00130834
7 *1183:D *252:48 5.38576e-05
8 *46:20 *1002:A0 0.000125917
9 *46:20 *1002:S 0.00022433
10 *46:20 *1089:A0 0
11 *46:20 *1098:A1 0.000179319
12 *46:20 *1132:B 0
13 *46:20 *81:28 1.68854e-05
14 *46:20 *83:167 0.000128305
15 *46:20 *98:42 0.00101787
16 *46:20 *100:26 0
17 *46:20 *110:53 0
18 *46:20 *121:18 5.56798e-05
19 *46:20 *128:44 0.000155997
20 *46:20 *167:32 0.000142441
21 *46:20 *185:55 2.06112e-05
22 *46:20 *200:30 0.00286044
23 *46:20 *207:18 0.00159019
24 *46:20 *207:38 8.88417e-05
25 *46:20 *236:156 0.000550648
26 *1183:RESET_B *1183:D 4.83461e-05
27 *21:34 *46:20 9.10327e-05
28 *34:28 *46:20 0
*RES
1 *946:Y *46:20 46.5318 
2 *46:20 *1183:D 33.2643 
*END

*D_NET *47 0.000620674
*CONN
*I *1184:D I *D sky130_fd_sc_hd__dfrtp_1
*I *944:X O *D sky130_fd_sc_hd__xor2_1
*CAP
1 *1184:D 0.000138874
2 *944:X 0.000138874
3 *1184:D *944:A 0.000107398
4 *1184:D *985:C1 2.59885e-05
5 *1184:D *96:42 0.00016372
6 *1159:D *1184:D 4.58194e-05
*RES
1 *944:X *1184:D 30.7964 
*END

*D_NET *48 0.0189372
*CONN
*I *1106:A I *D sky130_fd_sc_hd__buf_2
*I *272:DIODE I *D sky130_fd_sc_hd__diode_2
*I *1105:X O *D sky130_fd_sc_hd__and3_1
*CAP
1 *1106:A 0
2 *272:DIODE 4.5585e-05
3 *1105:X 0.00407406
4 *48:38 4.5585e-05
5 *48:36 0.00407406
6 *272:DIODE *938:A 6.82998e-05
7 *272:DIODE *1170:CLK 0.000136727
8 *48:36 *957:B 0.000363909
9 *48:36 *967:A 4.99283e-06
10 *48:36 *970:B 0.000278197
11 *48:36 *992:A1 0.00160284
12 *48:36 *1016:A2 0.00137142
13 *48:36 *1050:S 2.06112e-05
14 *48:36 *1093:B1 3.15588e-05
15 *48:36 *1111:S 2.02794e-05
16 *48:36 *57:36 0.000424778
17 *48:36 *76:32 8.22035e-05
18 *48:36 *85:20 7.69776e-06
19 *48:36 *95:53 0.000662308
20 *48:36 *118:24 0.000919714
21 *48:36 *130:78 2.63501e-05
22 *48:36 *131:36 3.655e-05
23 *48:36 *150:44 0.000198183
24 *48:36 *181:28 0.000552732
25 *48:36 *185:20 4.926e-05
26 *48:36 *212:60 0.000143064
27 *48:36 *234:18 0.000136659
28 *48:36 *239:93 2.36299e-05
29 *48:36 *243:20 0.000512597
30 seg[2] *48:36 8.12421e-05
31 *1172:D *48:36 0
32 *26:28 *48:36 0.0029421
*RES
1 *1105:X *48:36 49.3247 
2 *48:36 *48:38 4.5 
3 *48:38 *272:DIODE 10.6571 
4 *48:38 *1106:A 9.3 
*END

*D_NET *49 0.0262932
*CONN
*I *1113:S I *D sky130_fd_sc_hd__mux2_1
*I *1109:S I *D sky130_fd_sc_hd__mux2_1
*I *1107:S I *D sky130_fd_sc_hd__mux2_1
*I *1115:S I *D sky130_fd_sc_hd__mux2_1
*I *1111:S I *D sky130_fd_sc_hd__mux2_1
*I *1106:X O *D sky130_fd_sc_hd__buf_2
*CAP
1 *1113:S 0.00112265
2 *1109:S 0
3 *1107:S 0.00152049
4 *1115:S 0
5 *1111:S 0.00111646
6 *1106:X 0
7 *49:61 0.00267658
8 *49:45 0.00147466
9 *49:39 0.00233599
10 *49:4 0.00201123
11 *1107:S *984:B 1.90936e-05
12 *1107:S *1054:A 3.81752e-05
13 *1107:S *1107:A0 7.14165e-05
14 *1107:S *1115:A0 0.000246789
15 *1107:S *1148:S 0.000238534
16 *1107:S *1152:A0 0.000486915
17 *1107:S *1152:A1 2.63678e-05
18 *1107:S *74:10 0.00065798
19 *1107:S *77:49 0
20 *1107:S *88:54 0.000196266
21 *1107:S *93:37 4.56621e-05
22 *1107:S *93:53 0.000249404
23 *1107:S *98:42 2.58474e-05
24 *1107:S *122:37 4.1178e-05
25 *1107:S *146:26 5.88435e-05
26 *1107:S *167:32 9.87983e-06
27 *1107:S *174:45 0.000371884
28 *1107:S *174:57 0.000382413
29 *1107:S *202:10 9.54798e-06
30 *1111:S *938:A 0.000140243
31 *1111:S *1111:A1 2.2351e-05
32 *1111:S *57:70 1.90936e-05
33 *1111:S *84:89 0.000410632
34 *1111:S *85:20 8.07025e-05
35 *1111:S *90:70 6.11526e-05
36 *1111:S *115:42 9.45051e-05
37 *1111:S *120:26 0.000419956
38 *1111:S *134:10 0.000175892
39 *1111:S *137:20 0.000227276
40 *1111:S *155:133 0
41 *1111:S *169:35 0
42 *1111:S *250:64 0.00019072
43 *1111:S *259:50 0.000177596
44 *1113:S *955:A_N 5.06247e-05
45 *1113:S *955:B 0.000230482
46 *1113:S *1011:B1 0.000154071
47 *1113:S *1024:A 1.4796e-05
48 *1113:S *53:14 2.44318e-05
49 *1113:S *82:54 1.32516e-05
50 *1113:S *82:66 0.000140138
51 *1113:S *112:57 1.84776e-05
52 *1113:S *150:14 0.000128453
53 *1113:S *191:16 1.02911e-05
54 *1113:S *191:32 8.59547e-05
55 *1113:S *258:34 0
56 *49:39 *938:A 5.33005e-05
57 *49:39 *1024:A 0.000110837
58 *49:39 *1028:B1 5.50052e-05
59 *49:39 *82:79 2.62601e-05
60 *49:39 *85:20 0.000276339
61 *49:39 *116:98 0.000106699
62 *49:39 *150:14 0.00150768
63 *49:39 *155:26 0.000184512
64 *49:39 *183:34 0.000525864
65 *49:45 *1011:A2 0.000661186
66 *49:45 *155:34 0.000188244
67 *49:45 *269:26 0.000222828
68 *49:61 *965:A 2.12005e-05
69 *49:61 *1027:A 2.43656e-05
70 *49:61 *1128:A0 6.09762e-05
71 *49:61 *84:81 0.000601384
72 *49:61 *93:53 9.32955e-05
73 *49:61 *103:32 0.00013833
74 *49:61 *120:76 1.84431e-05
75 *49:61 *138:34 9.41642e-05
76 *49:61 *148:8 5.49544e-05
77 *49:61 *155:34 7.3897e-05
78 *49:61 *155:63 0.000484693
79 *49:61 *174:83 6.91176e-05
80 *49:61 *191:124 0.000139924
81 *49:61 *201:33 3.95546e-05
82 *49:61 *201:52 0.000339418
83 *49:61 *202:10 0.000160875
84 *49:61 *230:86 0.000226544
85 *49:61 *231:10 4.58194e-05
86 *49:61 *258:22 0.000252678
87 *1166:D *49:61 0.00039121
88 *1168:D *49:61 4.25864e-05
89 *1174:D *1111:S 2.02794e-05
90 *1177:D *1111:S 0.000618696
91 *31:12 *1113:S 1.63801e-05
92 *48:36 *1111:S 2.02794e-05
*RES
1 *1106:X *49:4 9.3 
2 *49:4 *1111:S 43.7295 
3 *49:4 *49:39 30.6964 
4 *49:39 *49:45 17.9286 
5 *49:45 *49:61 40.875 
6 *49:61 *1115:S 13.8 
7 *49:61 *1107:S 47.6393 
8 *49:45 *1109:S 9.3 
9 *49:39 *1113:S 35.4786 
*END

*D_NET *50 0.0110918
*CONN
*I *1108:A I *D sky130_fd_sc_hd__clkbuf_1
*I *1107:X O *D sky130_fd_sc_hd__mux2_1
*CAP
1 *1108:A 0
2 *1107:X 0.000944105
3 *50:18 0.00145225
4 *50:8 0.00239635
5 *50:8 *1054:A 0.00123628
6 *50:8 *174:45 3.05522e-05
7 *50:18 *1005:C 4.40754e-05
8 *50:18 *1072:A 2.47631e-06
9 *50:18 *1146:S 0.000336346
10 *50:18 *1192:A 0.00113748
11 *50:18 *62:14 0.00122939
12 *50:18 *73:16 0.000357287
13 *50:18 *83:94 7.90104e-05
14 *50:18 *116:23 0.000575786
15 *50:18 *121:18 0.000129093
16 *50:18 *174:29 0.000195403
17 *50:18 *197:28 0.000175265
18 *50:18 *218:16 1.45765e-05
19 *50:18 *263:44 0.000659698
20 *39:28 *50:18 9.64152e-05
*RES
1 *1107:X *50:8 26.6571 
2 *50:8 *50:18 43.4286 
3 *50:18 *1108:A 9.3 
*END

*D_NET *51 0.00734612
*CONN
*I *1110:A I *D sky130_fd_sc_hd__buf_1
*I *1109:X O *D sky130_fd_sc_hd__mux2_1
*CAP
1 *1110:A 0
2 *1109:X 0.00163022
3 *51:14 0.00163022
4 *51:14 *1010:A_N 0.000282477
5 *51:14 *1104:A 0.000639512
6 *51:14 *112:57 0.000308999
7 *51:14 *121:50 0.000162475
8 *51:14 *223:38 0.00132411
9 *51:14 *248:41 0.00131059
10 *26:28 *51:14 5.75147e-05
*RES
1 *1109:X *51:14 45.8536 
2 *51:14 *1110:A 9.3 
*END

*D_NET *52 0.000586516
*CONN
*I *1112:A I *D sky130_fd_sc_hd__clkbuf_1
*I *1111:X O *D sky130_fd_sc_hd__mux2_1
*CAP
1 *1112:A 0.000113389
2 *1111:X 0.000113389
3 *1112:A *1116:A 0.000139727
4 *1112:A *57:70 6.44697e-05
5 *1112:A *104:22 3.1478e-05
6 *1174:D *1112:A 0.000124062
*RES
1 *1111:X *1112:A 30.6 
*END

*D_NET *53 0.0108032
*CONN
*I *1114:A I *D sky130_fd_sc_hd__buf_1
*I *1113:X O *D sky130_fd_sc_hd__mux2_1
*CAP
1 *1114:A 0.00126484
2 *1113:X 0.00057485
3 *53:14 0.00183969
4 *1114:A *947:B 0
5 *1114:A *1028:C1 0.000163043
6 *1114:A *1044:B 0.000157038
7 *1114:A *1082:A 0.000347025
8 *1114:A *1124:S 2.53751e-05
9 *1114:A *1139:A 4.53621e-05
10 *1114:A *1170:CLK 0.000335686
11 *1114:A *80:38 2.06178e-05
12 *1114:A *84:89 0
13 *1114:A *90:70 0.00028645
14 *1114:A *115:42 0
15 *1114:A *120:26 2.15178e-05
16 *1114:A *155:22 9.05192e-05
17 *1114:A *161:46 0.000716148
18 *1114:A *169:35 0.000302058
19 *1114:A *174:124 6.34436e-05
20 *1114:A *238:70 0.00022102
21 *1114:A *239:56 7.70135e-05
22 *53:14 *955:B 0.000271345
23 *53:14 *1011:A2 0.00010096
24 *53:14 *94:8 0.0024374
25 *53:14 *180:65 0.000313241
26 *53:14 *183:10 0.000136316
27 *53:14 *191:32 0.000967832
28 *1113:S *53:14 2.44318e-05
*RES
1 *1113:X *53:14 42.425 
2 *53:14 *1114:A 43.4607 
*END

*D_NET *54 0.0100891
*CONN
*I *1116:A I *D sky130_fd_sc_hd__clkbuf_1
*I *1115:X O *D sky130_fd_sc_hd__mux2_1
*CAP
1 *1116:A 0.00146318
2 *1115:X 0.00102212
3 *54:12 0.0024853
4 *1116:A *81:92 0.000852654
5 *1116:A *169:35 2.42516e-05
6 *1116:A *233:47 9.58126e-05
7 *1116:A *250:64 0.0001239
8 *54:12 *987:B1 0.000211394
9 *54:12 *1026:S 0.000855249
10 *54:12 *1077:A1 0.000141445
11 *54:12 *100:26 0.000133611
12 *54:12 *129:26 6.77917e-05
13 *54:12 *191:128 0.00034188
14 *54:12 *210:49 0.000348703
15 *54:12 *217:18 0.000545923
16 *54:12 *252:48 5.42151e-05
17 *1112:A *1116:A 0.000139727
18 *1166:D *1116:A 0.000184072
19 *1175:D *1116:A 0.000471949
20 *36:22 *54:12 0.000222996
21 *43:26 *54:12 0.000302956
*RES
1 *1115:X *54:12 42.7821 
2 *54:12 *1116:A 32.1929 
*END

*D_NET *55 0.00536173
*CONN
*I *1118:A I *D sky130_fd_sc_hd__clkbuf_1
*I *1117:X O *D sky130_fd_sc_hd__or4b_1
*CAP
1 *1118:A 0
2 *1117:X 0.00140199
3 *55:14 0.00140199
4 *55:14 *937:A 2.1953e-05
5 *55:14 *957:B 4.81519e-05
6 *55:14 *1088:A 0.000161159
7 *55:14 *1104:A 0
8 *55:14 *1117:A 9.21418e-06
9 *55:14 *56:12 0.000116125
10 *55:14 *81:142 1.95625e-05
11 *55:14 *82:30 5.33005e-05
12 *55:14 *82:54 0.000117896
13 *55:14 *125:32 6.13772e-05
14 *55:14 *126:28 0.00074261
15 *55:14 *131:36 1.61405e-05
16 *55:14 *191:16 0.000138117
17 *55:14 *234:18 0
18 *55:14 *234:65 3.31314e-05
19 *55:14 *236:100 0
20 *55:14 *252:20 0.000123836
21 *55:14 *257:49 0
22 *55:14 *268:30 0.000878842
23 *45:26 *55:14 1.63333e-05
*RES
1 *1117:X *55:14 47.2821 
2 *55:14 *1118:A 9.3 
*END

*D_NET *56 0.0113842
*CONN
*I *1119:A I *D sky130_fd_sc_hd__buf_2
*I *1118:X O *D sky130_fd_sc_hd__clkbuf_1
*CAP
1 *1119:A 7.45538e-05
2 *1118:X 0.000402278
3 *56:22 0.00234791
4 *56:12 0.00267563
5 *1119:A *178:71 0.000135028
6 *56:12 *1092:A 5.33334e-05
7 *56:12 *126:28 0.000108434
8 *56:12 *191:16 5.33005e-05
9 *56:22 *937:A 0
10 *56:22 *976:C1 9.76073e-05
11 *56:22 *986:B1 9.76775e-05
12 *56:22 *1003:A_N 2.11419e-05
13 *56:22 *1031:B 0.000340001
14 *56:22 *1062:A2 2.12184e-05
15 *56:22 *1092:A 5.36451e-05
16 *56:22 *1093:B1 6.58294e-06
17 *56:22 *1100:A_N 9.4386e-05
18 *56:22 *1127:A 0.000642612
19 *56:22 *1177:CLK 0.00016002
20 *56:22 *77:117 1.13265e-05
21 *56:22 *78:16 8.45381e-05
22 *56:22 *78:51 0.0001836
23 *56:22 *82:135 4.47378e-05
24 *56:22 *82:154 3.45899e-05
25 *56:22 *112:30 0.000678377
26 *56:22 *149:18 9.2195e-05
27 *56:22 *179:34 1.24231e-05
28 *56:22 *193:10 6.75721e-05
29 *56:22 *196:31 0.000111458
30 *56:22 *201:80 0.00104148
31 *56:22 *221:12 0.000301597
32 *56:22 *239:76 0.00062766
33 *56:22 *245:14 0.000451384
34 *56:22 *248:41 0.000135509
35 *56:22 *257:49 0
36 *56:22 *263:50 4.22135e-06
37 *41:20 *56:22 0
38 *55:14 *56:12 0.000116125
*RES
1 *1118:X *56:12 20.5321 
2 *56:12 *56:22 49.6846 
3 *56:22 *1119:A 15.1571 
*END

*D_NET *57 0.0357053
*CONN
*I *1128:S I *D sky130_fd_sc_hd__mux2_1
*I *1126:S I *D sky130_fd_sc_hd__mux2_1
*I *1122:S I *D sky130_fd_sc_hd__mux2_1
*I *1124:S I *D sky130_fd_sc_hd__mux2_1
*I *1120:S I *D sky130_fd_sc_hd__mux2_1
*I *1119:X O *D sky130_fd_sc_hd__buf_2
*CAP
1 *1128:S 0.000168503
2 *1126:S 3.93936e-05
3 *1122:S 0
4 *1124:S 0.000821478
5 *1120:S 0.000652254
6 *1119:X 0.0008595
7 *57:87 0.00130343
8 *57:70 0.00245139
9 *57:50 0.00451827
10 *57:36 0.00344716
11 *57:22 0.00219858
12 *1120:S *1001:A 0.000809951
13 *1120:S *1051:A0 0.000937849
14 *1120:S *1051:S 0.000518082
15 *1120:S *1090:A 0.000443889
16 *1120:S *1120:A1 7.02611e-05
17 *1120:S *179:34 4.4044e-05
18 *1124:S *938:A 0.000180073
19 *1124:S *1016:A1 0.000143007
20 *1124:S *1124:A0 3.71308e-05
21 *1124:S *84:89 0.000154853
22 *1124:S *140:12 0.000313946
23 *1124:S *155:22 0.00105552
24 *1124:S *157:32 0.000350519
25 *1124:S *220:24 0.000347166
26 *1128:S *1192:A 0.000433719
27 *1128:S *62:14 9.10834e-05
28 *57:22 *1047:A 1.24368e-05
29 *57:22 *1093:B1 4.96113e-05
30 *57:22 *1176:CLK 0
31 *57:22 *108:49 0
32 *57:22 *108:65 0.000305191
33 *57:22 *112:18 0.00034694
34 *57:22 *178:71 5.62622e-05
35 *57:22 *193:10 0.000290927
36 *57:22 *223:38 2.15859e-05
37 *57:22 *242:24 9.00081e-05
38 *57:22 *256:34 0.000270288
39 *57:36 *945:A1 2.16277e-05
40 *57:36 *1032:A2 4.39992e-05
41 *57:36 *1117:D_N 5.85513e-06
42 *57:36 *77:121 6.32026e-05
43 *57:36 *78:16 0.000135028
44 *57:36 *81:142 4.81832e-05
45 *57:36 *82:18 1.90936e-05
46 *57:36 *82:135 0.000170318
47 *57:36 *90:24 3.48429e-05
48 *57:36 *100:65 0.000735062
49 *57:36 *108:65 0.000617376
50 *57:36 *130:78 8.76591e-06
51 *57:36 *193:10 0.00039061
52 *57:36 *212:60 1.3294e-05
53 *57:36 *235:60 4.38703e-05
54 *57:36 *239:76 6.47631e-05
55 *57:36 *239:93 8.0679e-05
56 *57:50 *995:A 0.00124414
57 *57:50 *1025:A3 4.65519e-05
58 *57:50 *81:92 8.44271e-06
59 *57:50 *81:142 2.5868e-05
60 *57:50 *82:54 0.000174216
61 *57:50 *100:65 0.000520313
62 *57:50 *115:42 0.000371092
63 *57:50 *121:85 0.000328142
64 *57:50 *130:78 1.30875e-05
65 *57:50 *145:41 0.000204855
66 *57:50 *198:18 0
67 *57:70 *995:A 0.000750677
68 *57:70 *1034:A2 4.12965e-05
69 *57:70 *1102:B 0.00053806
70 *57:70 *1103:A1 0.000170839
71 *57:70 *104:22 0.000696656
72 *57:70 *115:42 0.00016986
73 *57:87 *1130:C 6.47101e-05
74 *57:87 *82:79 0.000530127
75 *57:87 *155:26 0.000339253
76 *57:87 *155:133 0.000572838
77 *57:87 *255:20 0.000211108
78 *57:87 *255:71 1.10632e-05
79 *1111:S *57:70 1.90936e-05
80 *1112:A *57:70 6.44697e-05
81 *1114:A *1124:S 2.53751e-05
82 *1161:D *57:70 0.000249378
83 *1174:D *57:70 0.00026797
84 *1177:D *57:50 0.000674357
85 *1177:D *57:70 9.31134e-05
86 *1184:RESET_B *1120:S 0.00010807
87 *19:12 *1120:S 0.000127084
88 *22:12 *57:70 2.10756e-05
89 *43:26 *57:50 0.000266484
90 *48:36 *57:36 0.000424778
*RES
1 *1119:X *57:22 38.5143 
2 *57:22 *57:36 25.7203 
3 *57:36 *57:50 20.1531 
4 *57:50 *57:70 35.5893 
5 *57:70 *1120:S 36.9429 
6 *57:50 *57:87 20.3296 
7 *57:87 *1124:S 39.2821 
8 *57:87 *1122:S 9.3 
9 *57:36 *1126:S 10.0321 
10 *57:22 *1128:S 18.0321 
*END

*D_NET *58 0.0147007
*CONN
*I *1121:A I *D sky130_fd_sc_hd__buf_1
*I *1120:X O *D sky130_fd_sc_hd__mux2_1
*CAP
1 *1121:A 0.000374846
2 *1120:X 0.00119313
3 *58:28 0.00255787
4 *58:12 0.00337615
5 *1121:A *1087:A1 0.000908764
6 *1121:A *65:8 0.000181952
7 *1121:A *235:60 0.00043913
8 *58:12 *1061:A2 0.000127228
9 *58:12 *1120:A1 4.40028e-05
10 *58:12 *1180:CLK 0.000259561
11 *58:12 *93:22 0.000470341
12 *58:12 *106:80 0.00026109
13 *58:12 *252:56 4.02664e-05
14 *58:28 *1008:A2 8.03902e-05
15 *58:28 *78:99 0
16 *58:28 *83:167 0
17 *58:28 *106:65 0.000184965
18 *58:28 *136:24 0.000380461
19 *58:28 *185:55 0.00188251
20 *58:28 *208:75 0.000610586
21 *58:28 *235:86 0.00113739
22 *58:28 *271:43 0.000190032
*RES
1 *1120:X *58:12 35.8536 
2 *58:12 *58:28 39.5188 
3 *58:28 *1121:A 21.3357 
*END

*D_NET *59 0.00581759
*CONN
*I *1123:A I *D sky130_fd_sc_hd__clkbuf_1
*I *1122:X O *D sky130_fd_sc_hd__mux2_1
*CAP
1 *1123:A 0
2 *1122:X 0.00190027
3 *59:18 0.00190027
4 *59:18 *937:A 0.000119679
5 *59:18 *957:A 0.000104293
6 *59:18 *957:B 9.77118e-05
7 *59:18 *1011:B1 0.000428873
8 *59:18 *1046:B 0.000486491
9 *59:18 *1122:A1 5.36e-05
10 *59:18 *1125:A 5.22873e-06
11 *59:18 *60:14 6.00414e-07
12 *59:18 *126:28 0.000119679
13 *59:18 *157:32 0.000376373
14 *59:18 *191:32 6.52296e-05
15 *59:18 *247:18 5.50052e-05
16 *1172:D *59:18 0.000104282
*RES
1 *1122:X *59:18 49.3893 
2 *59:18 *1123:A 9.3 
*END

*D_NET *60 0.0133351
*CONN
*I *1125:A I *D sky130_fd_sc_hd__buf_1
*I *1124:X O *D sky130_fd_sc_hd__mux2_1
*CAP
1 *1125:A 0.000866557
2 *1124:X 4.62729e-05
3 *60:14 0.00400382
4 *60:10 0.00318354
5 *1125:A *957:A 0.000453551
6 *1125:A *73:16 3.10885e-05
7 *1125:A *96:18 5.33005e-05
8 *1125:A *118:59 4.91481e-05
9 *1125:A *127:31 0
10 *1125:A *143:16 0.000125236
11 *1125:A *197:46 0
12 *1125:A *248:41 0.000567872
13 *60:10 *205:57 7.89362e-05
14 *60:14 *1011:B1 0.00019331
15 *60:14 *1122:A1 1.52217e-05
16 *60:14 *157:32 0.00192573
17 *60:14 *220:24 0.0017357
18 *59:18 *1125:A 5.22873e-06
19 *59:18 *60:14 6.00414e-07
*RES
1 *1124:X *60:10 19.3357 
2 *60:10 *60:14 42.2411 
3 *60:14 *1125:A 35.3268 
*END

*D_NET *61 0.00286166
*CONN
*I *1127:A I *D sky130_fd_sc_hd__clkbuf_1
*I *1126:X O *D sky130_fd_sc_hd__mux2_1
*CAP
1 *1127:A 0.000467584
2 *1126:X 0.000467584
3 *1127:A *975:B 0.00017754
4 *1127:A *73:16 0.000102197
5 *1127:A *239:76 0.000642612
6 *33:16 *1127:A 0.000306311
7 *44:22 *1127:A 5.52238e-05
8 *56:22 *1127:A 0.000642612
*RES
1 *1126:X *1127:A 40.7786 
*END

*D_NET *62 0.00589831
*CONN
*I *1129:A I *D sky130_fd_sc_hd__clkbuf_1
*I *1128:X O *D sky130_fd_sc_hd__mux2_1
*CAP
1 *1129:A 0
2 *1128:X 0.0018481
3 *62:14 0.0018481
4 *62:14 *1039:B1 7.40536e-05
5 *62:14 *1192:A 0.000143377
6 *62:14 *83:94 1.50961e-05
7 *62:14 *146:26 7.25293e-05
8 *62:14 *236:39 9.41642e-05
9 *62:14 *247:46 9.58181e-05
10 *1128:S *62:14 9.10834e-05
11 *1162:D *62:14 0.0003866
12 *50:18 *62:14 0.00122939
*RES
1 *1128:X *62:14 42.5857 
2 *62:14 *1129:A 9.3 
*END

*D_NET *63 0.0182288
*CONN
*I *1131:A I *D sky130_fd_sc_hd__clkbuf_2
*I *1130:Y O *D sky130_fd_sc_hd__nand3_1
*CAP
1 *1131:A 0.000348206
2 *1130:Y 0.00447365
3 *63:30 0.00482185
4 *1131:A *1128:A0 0.000140088
5 *1131:A *1192:A 0.000125287
6 *1131:A *256:34 5.49544e-05
7 *63:30 *1009:A2 4.88232e-05
8 *63:30 *1023:A0 0.000109271
9 *63:30 *1032:B1 0.000500934
10 *63:30 *1041:A0 0.0030819
11 *63:30 *1091:A0 4.65519e-05
12 *63:30 *64:12 5.07922e-05
13 *63:30 *64:32 6.29147e-05
14 *63:30 *89:22 4.1261e-05
15 *63:30 *116:82 0.00037936
16 *63:30 *120:76 0.000165782
17 *63:30 *131:36 0.000206093
18 *63:30 *136:24 0.000258556
19 *63:30 *155:63 0.000165782
20 *63:30 *178:18 8.92205e-05
21 *63:30 *206:34 0.000153614
22 *63:30 *234:16 0.000198803
23 *63:30 *238:70 0.00268403
24 *63:30 *249:33 0
25 *24:26 *63:30 2.11055e-05
*RES
1 *1130:Y *63:30 46.5649 
2 *63:30 *1131:A 13.9607 
*END

*D_NET *64 0.0394651
*CONN
*I *1134:B I *D sky130_fd_sc_hd__and2_1
*I *1138:B I *D sky130_fd_sc_hd__and2_1
*I *1136:B I *D sky130_fd_sc_hd__and2_1
*I *1132:B I *D sky130_fd_sc_hd__and2_1
*I *1140:B I *D sky130_fd_sc_hd__and2_1
*I *1131:X O *D sky130_fd_sc_hd__clkbuf_2
*CAP
1 *1134:B 6.75954e-06
2 *1138:B 4.45387e-05
3 *1136:B 0.000514818
4 *1132:B 0.00159937
5 *1140:B 4.27655e-05
6 *1131:X 0.000712817
7 *64:88 0.00229519
8 *64:68 0.00370968
9 *64:32 0.00482097
10 *64:12 0.00585875
11 *1132:B *954:B_N 7.58067e-05
12 *1132:B *963:C 0
13 *1132:B *1132:A 1.53589e-05
14 *1132:B *1140:A 0
15 *1132:B *78:99 7.71346e-06
16 *1132:B *81:28 0
17 *1132:B *83:167 0
18 *1132:B *201:100 2.88344e-05
19 *1132:B *207:38 7.65888e-05
20 *1132:B *208:81 0.00131267
21 *1132:B *230:61 7.29712e-05
22 *1132:B *235:86 0.000110007
23 *1132:B *253:8 6.49408e-05
24 *1134:B *115:14 5.58875e-06
25 *1134:B *248:41 2.06178e-05
26 *1136:B *1124:A0 0.000117673
27 *1136:B *134:33 5.36422e-05
28 *1136:B *169:16 0.000152815
29 *1136:B *227:18 0.000402134
30 *1138:B *104:22 0.000138881
31 *1138:B *152:22 0.00018077
32 *1138:B *209:18 2.14658e-05
33 *1140:B *950:B 5.33005e-05
34 *1140:B *1026:A1 5.52238e-05
35 *1140:B *230:61 5.05056e-05
36 *1140:B *253:8 5.35475e-05
37 *64:12 *89:22 0.000298518
38 *64:12 *144:20 5.7836e-06
39 *64:12 *240:14 9.59532e-06
40 *64:32 *950:B 9.41642e-05
41 *64:32 *972:B2 0.000741285
42 *64:32 *1007:C 4.86178e-05
43 *64:32 *1026:A1 0.000106992
44 *64:32 *1026:S 1.50961e-05
45 *64:32 *1041:A0 4.24353e-05
46 *64:32 *83:30 0.000288594
47 *64:32 *89:22 1.04376e-05
48 *64:32 *90:70 0.000252313
49 *64:32 *95:73 0.000268047
50 *64:32 *103:32 0.00015294
51 *64:32 *179:34 0.00102651
52 *64:32 *200:30 5.22746e-05
53 *64:32 *204:28 3.83766e-05
54 *64:32 *247:46 8.94556e-05
55 *64:32 *252:48 0.000788005
56 *64:32 *263:44 8.85689e-05
57 *64:32 *268:30 8.96293e-05
58 *64:68 *945:A1 0.00045544
59 *64:68 *986:A2 0.000372683
60 *64:68 *1010:A_N 0.000578624
61 *64:68 *1093:B1 0.000191529
62 *64:68 *82:18 6.15188e-05
63 *64:68 *82:135 4.83126e-05
64 *64:68 *88:70 4.58854e-05
65 *64:68 *100:65 0.000127441
66 *64:68 *101:26 0.00226613
67 *64:68 *115:14 3.72639e-05
68 *64:68 *124:38 9.23883e-05
69 *64:68 *176:12 5.65796e-05
70 *64:68 *197:28 0.000353743
71 *64:68 *197:46 4.34166e-05
72 *64:68 *212:60 0
73 *64:68 *236:73 0.000128972
74 *64:68 *248:41 0.000178671
75 *64:68 *259:14 6.63677e-05
76 *64:68 *269:26 0.000304505
77 *64:88 *1000:B1 0.00036711
78 *64:88 *1034:A2 0.000126124
79 *64:88 *1124:A0 0.000305737
80 *64:88 *101:26 0.000328399
81 *64:88 *104:22 0.000284239
82 *64:88 *113:16 0.000600329
83 *64:88 *130:39 0.000131357
84 *64:88 *130:78 0.0013212
85 *64:88 *137:20 0.000920815
86 *64:88 *226:30 0.000595167
87 *64:88 *227:18 4.9663e-06
88 *1185:A *64:32 6.81861e-05
89 *27:18 *1136:B 0.000143128
90 *32:34 *64:68 0.0012147
91 *32:34 *64:88 1.07995e-05
92 *32:64 *1132:B 0
93 *44:22 *64:68 3.01346e-05
94 *45:26 *1136:B 0.000305127
95 *46:20 *1132:B 0
96 *63:30 *64:12 5.07922e-05
97 *63:30 *64:32 6.29147e-05
*RES
1 *1131:X *64:12 18.6869 
2 *64:12 *64:32 25.971 
3 *64:32 *1140:B 15.0679 
4 *64:32 *1132:B 42.4429 
5 *64:12 *64:68 33.9192 
6 *64:68 *64:88 16.091 
7 *64:88 *1136:B 26.425 
8 *64:88 *1138:B 15.5679 
9 *64:68 *1134:B 14.0768 
*END

*D_NET *65 0.0169298
*CONN
*I *1133:A I *D sky130_fd_sc_hd__clkbuf_1
*I *1132:X O *D sky130_fd_sc_hd__and2_1
*CAP
1 *1133:A 0.000122344
2 *1132:X 0.000807053
3 *65:28 0.002238
4 *65:8 0.00292271
5 *1133:A *145:41 0.000477109
6 *1133:A *234:65 0.000391976
7 *65:8 *941:A 9.51716e-06
8 *65:8 *1087:A1 0.000654058
9 *65:8 *78:99 0.00233663
10 *65:8 *82:185 0.000141343
11 *65:8 *83:146 5.26789e-05
12 *65:8 *83:152 9.88185e-05
13 *65:8 *84:14 0.000369725
14 *65:8 *108:10 0.000394859
15 *65:8 *235:60 5.23909e-05
16 *65:8 *235:86 1.96322e-05
17 *65:28 *972:B1 6.26523e-05
18 *65:28 *1032:A2 0.000920457
19 *65:28 *1055:A3 2.30116e-06
20 *65:28 *1056:A1 0.000151657
21 *65:28 *1177:CLK 6.09762e-05
22 *65:28 *82:185 0.000685245
23 *65:28 *85:63 1.13265e-05
24 *65:28 *110:70 0.000289591
25 *65:28 *116:23 0
26 *65:28 *121:85 0.000390456
27 *65:28 *123:80 0.00132828
28 *65:28 *131:36 7.89087e-05
29 *65:28 *168:20 0.000248624
30 *65:28 *181:28 0.000155093
31 *65:28 *194:14 4.4512e-05
32 *65:28 *200:30 0.000551773
33 *65:28 *221:37 0.000166028
34 *65:28 *235:60 0.000179252
35 *65:28 *242:24 0.000135342
36 *1121:A *65:8 0.000181952
37 *1177:D *65:28 0.000181284
38 *41:20 *65:28 1.52796e-05
*RES
1 *1132:X *65:8 42.675 
2 *65:8 *65:28 47.8972 
3 *65:28 *1133:A 13.9429 
*END

*D_NET *66 0.00538505
*CONN
*I *1135:A I *D sky130_fd_sc_hd__clkbuf_1
*I *1134:X O *D sky130_fd_sc_hd__and2_1
*CAP
1 *1135:A 0
2 *1134:X 0.00168554
3 *66:20 0.00168554
4 *66:20 *999:A2 0.00109719
5 *66:20 *1013:A 2.2351e-05
6 *66:20 *1122:A1 0
7 *66:20 *137:20 6.46129e-05
8 *66:20 *155:34 0.000817932
9 *66:20 *217:18 4.22135e-06
10 *66:20 *226:30 7.66527e-06
11 *36:22 *66:20 0
*RES
1 *1134:X *66:20 43.2107 
2 *66:20 *1135:A 9.3 
*END

*D_NET *67 0.0201338
*CONN
*I *1137:A I *D sky130_fd_sc_hd__buf_1
*I *1136:X O *D sky130_fd_sc_hd__and2_1
*CAP
1 *1137:A 0.00283233
2 *1136:X 0.0016205
3 *67:16 0.00430077
4 *67:8 0.00308894
5 *1137:A *1002:A0 1.10422e-05
6 *1137:A *1020:A 0.000670347
7 *1137:A *1021:B1 0
8 *1137:A *1061:A2 8.47814e-05
9 *1137:A *1124:A1 0.000426492
10 *1137:A *70:32 0.000108872
11 *1137:A *81:28 0.000234737
12 *1137:A *96:42 0.000303972
13 *1137:A *100:26 1.61405e-05
14 *1137:A *109:50 0.000274663
15 *1137:A *141:14 0.000303972
16 *1137:A *152:42 0.00051463
17 *1137:A *160:20 0.000265359
18 *1137:A *211:18 0.000266156
19 *1137:A *222:30 8.65125e-05
20 *1137:A *247:71 5.38655e-05
21 *67:8 *1136:A 0.000261112
22 *67:8 *94:8 1.79326e-05
23 *67:16 *80:38 0.00107426
24 *67:16 *147:24 0.0027825
25 *67:16 *152:30 0.000417572
26 *67:16 *158:20 5.33005e-05
27 *67:16 *168:55 6.30136e-05
*RES
1 *1136:X *67:8 33.6393 
2 *67:8 *67:16 49.0357 
3 *67:16 *1137:A 40.8609 
*END

*D_NET *68 0.00248722
*CONN
*I *1139:A I *D sky130_fd_sc_hd__clkbuf_1
*I *1138:X O *D sky130_fd_sc_hd__and2_1
*CAP
1 *1139:A 0.000560849
2 *1138:X 0.000560849
3 *1139:A *1170:CLK 0.000139453
4 *1139:A *84:89 4.22135e-06
5 *1139:A *169:35 0.000256997
6 *1139:A *209:18 0.00042807
7 *1139:A *250:64 0.000491417
8 *1114:A *1139:A 4.53621e-05
*RES
1 *1138:X *1139:A 38.6357 
*END

*D_NET *69 0.00500782
*CONN
*I *1141:A I *D sky130_fd_sc_hd__clkbuf_1
*I *1140:X O *D sky130_fd_sc_hd__and2_1
*CAP
1 *1141:A 0
2 *1140:X 0.00102261
3 *69:14 0.00102261
4 *69:14 *1026:A1 0.000720302
5 *69:14 *1067:A 0.000212492
6 *69:14 *1079:A2 4.04691e-06
7 *69:14 *102:16 0.000295467
8 *69:14 *115:42 1.94945e-05
9 *69:14 *133:8 0.000288383
10 *69:14 *161:30 0.000219366
11 *69:14 *233:23 0.000594045
12 *69:14 *233:143 0.000250365
13 *69:14 *236:33 2.42516e-05
14 *69:14 *255:71 7.78006e-05
15 *1159:D *69:14 0.000256584
*RES
1 *1140:X *69:14 44.1929 
2 *69:14 *1141:A 9.3 
*END

*D_NET *70 0.0316384
*CONN
*I *1143:A I *D sky130_fd_sc_hd__clkbuf_2
*I *273:DIODE I *D sky130_fd_sc_hd__diode_2
*I *1142:X O *D sky130_fd_sc_hd__and3_1
*CAP
1 *1143:A 0.000119585
2 *273:DIODE 0
3 *1142:X 0.00951256
4 *70:32 0.00963215
5 *1143:A *974:B 5.09973e-05
6 *1143:A *975:B 2.02727e-05
7 *1143:A *986:A1 7.22263e-05
8 *1143:A *986:B1 8.35979e-05
9 *1143:A *125:32 0.000151016
10 *1143:A *127:31 7.65312e-06
11 *70:32 *975:B 3.24007e-05
12 *70:32 *1008:A1 4.22135e-06
13 *70:32 *80:38 3.3981e-05
14 *70:32 *101:26 0.000322373
15 *70:32 *113:16 3.13654e-05
16 *70:32 *127:31 1.7991e-05
17 *70:32 *147:8 0.000132456
18 *70:32 *152:42 0.000552154
19 *70:32 *153:45 6.27272e-06
20 *70:32 *158:12 0.000512673
21 *70:32 *168:55 0.000131208
22 *70:32 *173:38 0.000223303
23 *70:32 *189:34 0.00580449
24 *70:32 *190:30 0.00328383
25 *70:32 *211:18 0.000302991
26 *70:32 *211:30 0.00022054
27 *70:32 *219:20 0
28 *70:32 *221:43 0.000104671
29 *70:32 *229:14 0.00016252
30 *1137:A *70:32 0.000108872
*RES
1 *1142:X *70:32 41.5184 
2 *70:32 *273:DIODE 13.8 
3 *70:32 *1143:A 17.1214 
*END

*D_NET *71 0.0218727
*CONN
*I *1146:S I *D sky130_fd_sc_hd__mux2_1
*I *1148:S I *D sky130_fd_sc_hd__mux2_1
*I *1152:S I *D sky130_fd_sc_hd__mux2_1
*I *1144:S I *D sky130_fd_sc_hd__mux2_1
*I *1150:S I *D sky130_fd_sc_hd__mux2_1
*I *1143:X O *D sky130_fd_sc_hd__clkbuf_2
*CAP
1 *1146:S 0.000421091
2 *1148:S 0.000982805
3 *1152:S 0
4 *1144:S 0.000407638
5 *1150:S 0.000276939
6 *1143:X 0.00049563
7 *71:47 0.000448055
8 *71:43 0.00207318
9 *71:20 0.00290765
10 *71:14 0.00249748
11 *1144:S *1002:A0 4.82865e-05
12 *1144:S *1002:S 9.99853e-05
13 *1144:S *1152:A1 1.87331e-05
14 *1144:S *96:42 0.000120232
15 *1144:S *141:14 0.000590151
16 *1146:S *972:C1 2.22674e-05
17 *1146:S *1056:A1 0
18 *1146:S *1069:A 0.000298483
19 *1146:S *1146:A1 0.0001219
20 *1146:S *73:16 0.000127094
21 *1146:S *110:70 3.46714e-05
22 *1146:S *174:29 3.47641e-06
23 *1146:S *247:46 0.000112377
24 *1148:S *952:D 0.000245458
25 *1148:S *1015:A 0.000121767
26 *1148:S *1152:A0 0.000207021
27 *1148:S *74:10 4.4545e-05
28 *1148:S *77:49 0.000136388
29 *1148:S *122:37 0.000265445
30 *1148:S *174:45 2.36643e-05
31 *1148:S *174:57 0.000481421
32 *1148:S *235:86 4.65617e-06
33 *1150:S *1032:B1 0.00013028
34 *1150:S *1150:A1 0.000253311
35 *1150:S *171:20 3.43622e-05
36 *1150:S *171:40 2.36643e-05
37 *1150:S *191:97 5.33005e-05
38 *1150:S *191:124 0.000190265
39 *1150:S *201:16 1.39761e-05
40 *1150:S *201:33 1.05731e-05
41 *71:14 *974:B 5.49544e-05
42 *71:14 *1041:A0 8.51349e-05
43 *71:14 *73:16 5.97574e-05
44 *71:14 *90:24 0.000222428
45 *71:14 *112:41 4.14768e-05
46 *71:14 *118:59 0.000498214
47 *71:14 *125:32 3.1367e-05
48 *71:14 *130:78 0.000546063
49 *71:14 *238:70 0.000245517
50 *71:14 *247:46 1.08359e-05
51 *71:20 *1004:C1 8.43535e-06
52 *71:20 *234:95 0.00018028
53 *71:20 *238:70 5.33005e-05
54 *71:20 *247:46 0.00160322
55 *71:43 *984:A 0.000638113
56 *71:43 *1032:B1 0.000724458
57 *71:43 *1152:A1 2.23592e-05
58 *71:43 *76:32 9.60875e-05
59 *71:43 *77:43 2.34107e-05
60 *71:43 *93:53 7.11205e-05
61 *71:43 *96:42 0.000231842
62 *71:43 *98:42 1.73088e-05
63 *71:43 *155:63 1.61405e-05
64 *71:43 *174:73 0.000486187
65 *71:43 *191:124 0.000110339
66 *71:43 *237:45 0.00011595
67 *71:47 *1152:A1 1.15154e-05
68 *71:47 *96:42 5.33005e-05
69 *1107:S *1148:S 0.000238534
70 *37:12 *1144:S 0.000690506
71 *50:18 *1146:S 0.000336346
*RES
1 *1143:X *71:14 27.8714 
2 *71:14 *71:20 29.25 
3 *71:20 *1150:S 20.0857 
4 *71:20 *71:43 27.1071 
5 *71:43 *71:47 0.964286 
6 *71:47 *1144:S 20.55 
7 *71:47 *1152:S 9.3 
8 *71:43 *1148:S 37.9429 
9 *71:14 *1146:S 23.6036 
*END

*D_NET *72 0.00980021
*CONN
*I *1145:A I *D sky130_fd_sc_hd__clkbuf_1
*I *1144:X O *D sky130_fd_sc_hd__mux2_1
*CAP
1 *1145:A 0.000538444
2 *1144:X 0.00161055
3 *72:12 0.002149
4 *1145:A *1103:A0 0.000606665
5 *1145:A *1124:A1 0.00010255
6 *1145:A *109:40 0.000389234
7 *1145:A *139:18 0.000318726
8 *1145:A *153:18 4.97236e-05
9 *1145:A *239:10 0
10 *1145:A *239:22 0.000175377
11 *72:12 *1098:A1 6.91961e-05
12 *72:12 *1103:A0 0.000280845
13 *72:12 *87:32 9.60939e-05
14 *72:12 *153:18 0.000368647
15 *72:12 *201:116 0.00194192
16 *22:12 *1145:A 0.00110324
*RES
1 *1144:X *72:12 39.4161 
2 *72:12 *1145:A 34.1125 
*END

*D_NET *73 0.00588668
*CONN
*I *1147:A I *D sky130_fd_sc_hd__clkbuf_1
*I *1146:X O *D sky130_fd_sc_hd__mux2_1
*CAP
1 *1147:A 0
2 *1146:X 0.00129845
3 *73:16 0.00129845
4 *73:16 *1146:A1 5.33005e-05
5 *73:16 *90:24 0.000459049
6 *73:16 *113:10 2.06178e-05
7 *73:16 *118:59 0
8 *73:16 *130:78 0.000153276
9 *73:16 *143:16 0.00123468
10 *73:16 *197:28 0.000521023
11 *73:16 *218:16 5.01463e-05
12 *1125:A *73:16 3.10885e-05
13 *1127:A *73:16 0.000102197
14 *1146:S *73:16 0.000127094
15 *1177:D *73:16 1.90936e-05
16 *32:34 *73:16 1.54436e-05
17 *44:22 *73:16 8.5717e-05
18 *50:18 *73:16 0.000357287
19 *71:14 *73:16 5.97574e-05
*RES
1 *1146:X *73:16 48.8179 
2 *73:16 *1147:A 9.3 
*END

*D_NET *74 0.00689257
*CONN
*I *1149:A I *D sky130_fd_sc_hd__buf_1
*I *1148:X O *D sky130_fd_sc_hd__mux2_1
*CAP
1 *1149:A 0
2 *1148:X 0.00174791
3 *74:10 0.00174791
4 *74:10 *97:43 0.00214598
5 *74:10 *122:37 0.000548245
6 *1107:S *74:10 0.00065798
7 *1148:S *74:10 4.4545e-05
*RES
1 *1148:X *74:10 49.3 
2 *74:10 *1149:A 9.3 
*END

*D_NET *75 0.00130749
*CONN
*I *1151:A I *D sky130_fd_sc_hd__buf_1
*I *1150:X O *D sky130_fd_sc_hd__mux2_1
*CAP
1 *1151:A 0.000256821
2 *1150:X 0.000256821
3 *1151:A *1025:A2 0.000159698
4 *1151:A *1025:B1 6.47254e-05
5 *1151:A *1039:A1 4.05386e-05
6 *1151:A *93:53 2.4446e-05
7 *1151:A *248:23 3.15509e-05
8 *31:28 *1151:A 0.000472886
*RES
1 *1150:X *1151:A 34.1 
*END

*D_NET *76 0.0179702
*CONN
*I *1153:A I *D sky130_fd_sc_hd__buf_1
*I *1152:X O *D sky130_fd_sc_hd__mux2_1
*CAP
1 *1153:A 0.000513969
2 *1152:X 0.00519612
3 *76:32 0.00571009
4 *1153:A *976:B1 0.000368111
5 *1153:A *121:50 6.88348e-05
6 *1153:A *144:20 0.000834708
7 *1153:A *189:34 0.000203987
8 *1153:A *206:18 6.68591e-05
9 *1153:A *260:36 6.24939e-05
10 *76:32 *953:A1 5.20232e-05
11 *76:32 *953:A2 5.00087e-06
12 *76:32 *953:C1 0.000121516
13 *76:32 *967:A 0.000226852
14 *76:32 *980:B 0.000239229
15 *76:32 *1050:A0 0.00013192
16 *76:32 *1078:A3 1.6734e-05
17 *76:32 *1097:A2 0
18 *76:32 *81:12 0.000338817
19 *76:32 *81:28 0.000665317
20 *76:32 *85:63 4.2203e-05
21 *76:32 *87:32 0.000169291
22 *76:32 *97:20 3.47641e-06
23 *76:32 *98:42 2.28499e-05
24 *76:32 *98:72 0.00044898
25 *76:32 *98:79 7.95355e-05
26 *76:32 *106:37 0.00012777
27 *76:32 *108:49 9.57184e-05
28 *76:32 *121:18 0
29 *76:32 *128:22 0.000211585
30 *76:32 *212:60 0.00026303
31 *76:32 *224:12 0.00012797
32 *76:32 *263:44 0.00102898
33 seg[2] *76:32 9.1377e-05
34 *1182:RESET_B *1153:A 3.10863e-05
35 *39:28 *76:32 0.000225486
36 *48:36 *76:32 8.22035e-05
37 *71:43 *76:32 9.60875e-05
*RES
1 *1152:X *76:32 47.5043 
2 *76:32 *1153:A 28.1125 
*END

*D_NET *77 0.0320661
*CONN
*I *1003:D I *D sky130_fd_sc_hd__and4b_1
*I *936:A I *D sky130_fd_sc_hd__clkbuf_2
*I *975:D I *D sky130_fd_sc_hd__and4b_1
*I *955:A_N I *D sky130_fd_sc_hd__and2b_1
*I *979:A I *D sky130_fd_sc_hd__nor2_2
*I *949:C I *D sky130_fd_sc_hd__nand3b_4
*I *952:D I *D sky130_fd_sc_hd__and4bb_1
*I *963:C I *D sky130_fd_sc_hd__and3b_1
*I *1002:A1 I *D sky130_fd_sc_hd__mux2_2
*I *1007:D I *D sky130_fd_sc_hd__and4b_1
*I *935:X O *D sky130_fd_sc_hd__clkbuf_4
*CAP
1 *1003:D 6.81879e-05
2 *936:A 0.0010568
3 *975:D 0
4 *955:A_N 0.000257168
5 *979:A 8.49097e-05
6 *949:C 0
7 *952:D 0.000706646
8 *963:C 0.000424394
9 *1002:A1 0.000156795
10 *1007:D 9.9048e-05
11 *935:X 0.000318751
12 *77:145 0.00102029
13 *77:131 0.00125541
14 *77:121 0.00175108
15 *77:117 0.000713
16 *77:55 0.000811455
17 *77:49 0.0011995
18 *77:43 0.00127407
19 *77:10 0.0013635
20 *77:6 0.00109945
21 *936:A *996:A 6.57032e-05
22 *936:A *1177:CLK 0.000197091
23 *936:A *78:16 2.13481e-06
24 *936:A *81:142 0.000224426
25 *936:A *108:65 6.22482e-05
26 *936:A *135:8 0.000104976
27 *952:D *965:A 0.000344413
28 *952:D *1015:A 0.000515766
29 *952:D *1020:A 0
30 *952:D *1148:A0 9.7196e-05
31 *952:D *1158:CLK 5.33005e-05
32 *952:D *87:32 9.63528e-05
33 *952:D *104:10 5.69819e-05
34 *952:D *167:32 6.66848e-05
35 *952:D *235:86 6.41052e-05
36 *952:D *267:26 5.33005e-05
37 *955:A_N *955:B 4.7365e-05
38 *955:A_N *82:54 3.10819e-05
39 *955:A_N *82:66 3.31604e-05
40 *955:A_N *183:34 0.000107093
41 *955:A_N *190:30 0
42 *963:C *1002:S 7.3475e-05
43 *963:C *1061:A1 0.00111352
44 *963:C *83:167 0.000169648
45 *963:C *104:10 7.91733e-05
46 *963:C *104:14 0.000141941
47 *963:C *106:57 0.000855306
48 *979:A *112:57 7.86953e-05
49 *979:A *118:24 5.33005e-05
50 *1002:A1 *1002:S 0.000123685
51 *1002:A1 *235:86 0
52 *1003:D *1041:A1 7.47432e-05
53 *1003:D *82:30 0.000136036
54 *1003:D *218:16 0
55 *1007:D *83:94 5.33005e-05
56 *1007:D *236:39 4.89629e-05
57 *1007:D *247:46 4.26058e-06
58 *77:6 *1072:A 0.00034775
59 *77:6 *1192:A 1.02937e-05
60 *77:6 *83:94 5.47047e-05
61 *77:10 *83:94 0.000288238
62 *77:10 *247:46 0
63 *77:43 *984:A 0.000516459
64 *77:43 *1035:B1 2.12087e-05
65 *77:43 *1063:A 1.32056e-05
66 *77:43 *83:30 1.52299e-05
67 *77:43 *83:61 5.22069e-05
68 *77:43 *88:54 0.000168064
69 *77:43 *90:34 0.000103434
70 *77:43 *90:84 7.14647e-05
71 *77:43 *93:53 0.000690974
72 *77:43 *146:26 3.0263e-05
73 *77:43 *155:82 0.000272767
74 *77:43 *170:35 0.000263108
75 *77:43 *173:38 8.37087e-05
76 *77:43 *228:24 5.00087e-06
77 *77:43 *234:148 0.000124634
78 *77:43 *234:163 5.31158e-05
79 *77:43 *236:49 5.05056e-05
80 *77:43 *237:45 0.000670381
81 *77:49 *949:B 9.54798e-06
82 *77:49 *1075:A1 3.23265e-05
83 *77:49 *1152:A1 0.000160941
84 *77:49 *87:32 9.23883e-05
85 *77:49 *88:54 5.52238e-05
86 *77:49 *110:53 4.00349e-05
87 *77:49 *141:14 2.94158e-05
88 *77:49 *170:35 5.33005e-05
89 *77:55 *93:37 4.13496e-05
90 *77:55 *235:86 0.00076242
91 *77:55 *267:40 0.00084047
92 *77:117 *1041:A1 6.05161e-06
93 *77:117 *1072:B 0.000164633
94 *77:117 *1088:A 0.000177596
95 *77:117 *78:51 0.000149547
96 *77:117 *82:30 0.000218404
97 *77:117 *90:34 0.000468645
98 *77:117 *191:97 0.000314841
99 *77:117 *198:28 0
100 *77:117 *201:80 0.000184382
101 *77:117 *218:16 9.85599e-06
102 *77:117 *234:91 4.88116e-05
103 *77:117 *247:46 2.42516e-05
104 *77:117 *257:49 0.000356147
105 *77:121 *235:31 0.000160827
106 *77:121 *239:76 0.000101822
107 *77:131 *975:B 0.000473021
108 *77:131 *976:C1 0.000234866
109 *77:131 *145:41 0.000599216
110 *77:131 *235:31 3.71101e-05
111 *77:131 *239:76 0.000686741
112 *77:131 *268:30 0.000157596
113 *77:145 *975:B 0.000110135
114 *77:145 *112:57 0.000511766
115 *77:145 *118:24 0.000178503
116 *77:145 *259:14 0.000446613
117 *77:145 *268:30 6.83862e-05
118 *1107:S *77:49 0
119 *1113:S *955:A_N 5.06247e-05
120 *1132:B *963:C 0
121 *1148:S *952:D 0.000245458
122 *1148:S *77:49 0.000136388
123 *1177:D *936:A 1.74503e-05
124 *21:34 *952:D 0.000228495
125 *31:12 *77:145 9.44309e-06
126 *33:16 *77:145 0.00047652
127 *56:22 *77:117 1.13265e-05
128 *57:36 *77:121 6.32026e-05
129 *71:43 *77:43 2.34107e-05
*RES
1 *935:X *77:6 13.5321 
2 *77:6 *77:10 3.42857 
3 *77:10 *1007:D 11.1973 
4 *77:10 *77:43 43.3214 
5 *77:43 *77:49 9.71429 
6 *77:49 *77:55 17.3393 
7 *77:55 *1002:A1 15.9786 
8 *77:55 *963:C 28.0679 
9 *77:49 *952:D 38.1214 
10 *77:43 *949:C 9.3 
11 *77:6 *77:117 32.0536 
12 *77:117 *77:121 7.35714 
13 *77:121 *77:131 20.3527 
14 *77:131 *77:145 23.3973 
15 *77:145 *979:A 11.0857 
16 *77:145 *955:A_N 23.2821 
17 *77:131 *975:D 9.3 
18 *77:121 *936:A 27.2107 
19 *77:117 *1003:D 11.1973 
*END

*D_NET *78 0.0318557
*CONN
*I *1010:A_N I *D sky130_fd_sc_hd__and2b_1
*I *954:A I *D sky130_fd_sc_hd__or2b_2
*I *966:A_N I *D sky130_fd_sc_hd__and3b_1
*I *1009:A1 I *D sky130_fd_sc_hd__o21a_1
*I *937:A I *D sky130_fd_sc_hd__clkbuf_1
*I *936:X O *D sky130_fd_sc_hd__clkbuf_2
*CAP
1 *1010:A_N 0.000506733
2 *954:A 0
3 *966:A_N 2.72859e-05
4 *1009:A1 0.00076824
5 *937:A 0.00160844
6 *936:X 0.000415534
7 *78:99 0.00232406
8 *78:84 0.00366195
9 *78:51 0.00252027
10 *78:16 0.00273021
11 *78:6 0.00160261
12 *937:A *978:B 0.000490963
13 *937:A *1003:A_N 2.07552e-05
14 *937:A *1065:A 0.000100368
15 *937:A *1092:A 3.59846e-05
16 *937:A *81:72 1.84474e-05
17 *937:A *100:65 2.48858e-05
18 *937:A *126:28 0.000321956
19 *937:A *131:36 0.000979101
20 *937:A *149:18 6.6366e-05
21 *937:A *191:54 0.000226294
22 *937:A *191:79 1.0731e-05
23 *937:A *239:64 0
24 *937:A *243:20 0.000173803
25 *937:A *257:49 0.000638904
26 *937:A *258:34 0.000492887
27 *966:A_N *1097:A2 9.60875e-05
28 *966:A_N *1098:B1 9.41642e-05
29 *1009:A1 *972:B2 0.000430605
30 *1009:A1 *1009:B1 5.49544e-05
31 *1009:A1 *1100:B 2.01732e-05
32 *1009:A1 *1178:CLK 4.82947e-05
33 *1009:A1 *89:22 0.000550071
34 *1009:A1 *90:42 4.94758e-05
35 *1009:A1 *95:73 4.19624e-06
36 *1009:A1 *234:163 1.62284e-05
37 *1009:A1 *252:48 2.34366e-05
38 *1010:A_N *83:48 0.000515447
39 *1010:A_N *197:46 0.000578092
40 *1010:A_N *223:38 0.000223738
41 *78:6 *996:A 8.43535e-06
42 *78:6 *135:8 0.000512928
43 *78:16 *996:A 1.58163e-05
44 *78:16 *1177:CLK 0.000333517
45 *78:16 *257:49 2.03618e-05
46 *78:16 *267:14 9.41642e-05
47 *78:51 *1117:D_N 4.926e-05
48 *78:51 *81:72 0.000599195
49 *78:51 *131:36 1.84474e-05
50 *78:51 *235:60 0.000302258
51 *78:51 *238:70 4.65519e-05
52 *78:51 *257:49 9.18765e-06
53 *78:84 *972:B1 3.53463e-05
54 *78:84 *1020:A 0
55 *78:84 *1058:D 4.06777e-05
56 *78:84 *1097:A1 0.000133715
57 *78:84 *1097:B1 4.16953e-05
58 *78:84 *81:12 8.94491e-05
59 *78:84 *81:28 0.000242142
60 *78:84 *81:72 0.000828047
61 *78:84 *85:63 9.25557e-05
62 *78:84 *155:98 2.59169e-05
63 *78:84 *235:60 0.000450031
64 *78:84 *256:22 0.00010922
65 *78:99 *1087:A1 0.000532935
66 *78:99 *1107:A1 0
67 *78:99 *1132:A 0.000230284
68 *78:99 *82:185 0.000104252
69 *78:99 *83:152 4.23853e-06
70 *78:99 *84:26 0
71 *78:99 *155:98 0.000182634
72 *78:99 *174:45 4.19624e-06
73 *78:99 *201:90 0.000251732
74 *936:A *78:16 2.13481e-06
75 *1132:B *78:99 7.71346e-06
76 *1178:D *1009:A1 7.28578e-05
77 *41:20 *78:16 0
78 *51:14 *1010:A_N 0.000282477
79 *55:14 *937:A 2.1953e-05
80 *56:22 *937:A 0
81 *56:22 *78:16 8.45381e-05
82 *56:22 *78:51 0.0001836
83 *57:36 *78:16 0.000135028
84 *58:28 *78:99 0
85 *59:18 *937:A 0.000119679
86 *64:68 *1010:A_N 0.000578624
87 *65:8 *78:99 0.00233663
88 *77:117 *78:51 0.000149547
*RES
1 *936:X *78:6 14.7643 
2 *78:6 *78:16 14.9911 
3 *78:16 *937:A 48.5803 
4 *78:16 *78:51 10.782 
5 *78:51 *1009:A1 28.166 
6 *78:51 *78:84 14.5916 
7 *78:84 *966:A_N 14.7464 
8 *78:84 *78:99 40.9464 
9 *78:99 *954:A 9.3 
10 *78:6 *1010:A_N 33.6929 
*END

*D_NET *79 0.00951917
*CONN
*I *938:A I *D sky130_fd_sc_hd__buf_1
*I *937:X O *D sky130_fd_sc_hd__clkbuf_1
*CAP
1 *938:A 0.000822616
2 *937:X 0.00183625
3 *79:12 0.00265887
4 *938:A *1016:A1 0.000154367
5 *938:A *1170:CLK 0.000270399
6 *938:A *155:22 3.19679e-05
7 *938:A *255:20 0.000177596
8 *79:12 *1046:B 5.28442e-06
9 *79:12 *1122:A1 0
10 *79:12 *116:98 0.000544784
11 *79:12 *183:34 5.5682e-05
12 *79:12 *185:20 0
13 *79:12 *215:14 0.0019747
14 *272:DIODE *938:A 6.82998e-05
15 *1111:S *938:A 0.000140243
16 *1124:S *938:A 0.000180073
17 *1170:D *938:A 0.000123715
18 *26:28 *79:12 0
19 *45:26 *79:12 0.000421029
20 *49:39 *938:A 5.33005e-05
*RES
1 *937:X *79:12 47.6571 
2 *79:12 *938:A 23.9786 
*END

*D_NET *80 0.0282098
*CONN
*I *939:A I *D sky130_fd_sc_hd__buf_2
*I *938:X O *D sky130_fd_sc_hd__buf_1
*CAP
1 *939:A 0
2 *938:X 0.0100635
3 *80:38 0.0100635
4 *80:38 *956:A 2.34861e-05
5 *80:38 *1016:A2 0.000582386
6 *80:38 *1061:A2 0.000149142
7 *80:38 *1097:B1 2.82693e-05
8 *80:38 *1101:B 0
9 *80:38 *1124:A1 0.00022588
10 *80:38 *81:12 4.63789e-05
11 *80:38 *85:63 6.43226e-05
12 *80:38 *101:26 0
13 *80:38 *109:50 0.00270155
14 *80:38 *147:24 0.000515582
15 *80:38 *152:30 0.000132928
16 *80:38 *155:98 0.000132938
17 *80:38 *161:46 1.90936e-05
18 *80:38 *168:55 0.000217275
19 *80:38 *189:34 0.001473
20 *80:38 *190:30 0
21 *80:38 *200:30 4.65624e-05
22 *80:38 *235:60 4.65519e-05
23 *80:38 *243:20 1.22759e-05
24 *80:38 *267:14 0.000129811
25 *1114:A *80:38 2.06178e-05
26 *26:28 *80:38 0.000353986
27 *44:22 *80:38 5.25711e-05
28 *67:16 *80:38 0.00107426
29 *70:32 *80:38 3.3981e-05
*RES
1 *938:X *80:38 47.4861 
2 *80:38 *939:A 9.3 
*END

*D_NET *81 0.0419556
*CONN
*I *1117:A I *D sky130_fd_sc_hd__or4b_1
*I *1037:B1 I *D sky130_fd_sc_hd__o21ai_1
*I *991:B1 I *D sky130_fd_sc_hd__o21a_2
*I *1130:A I *D sky130_fd_sc_hd__nand3_1
*I *944:A I *D sky130_fd_sc_hd__xor2_1
*I *1142:A I *D sky130_fd_sc_hd__and3_1
*I *939:X O *D sky130_fd_sc_hd__buf_2
*CAP
1 *1117:A 8.15404e-05
2 *1037:B1 0
3 *991:B1 0.000247626
4 *1130:A 0.00156641
5 *944:A 8.22385e-05
6 *1142:A 0.00114307
7 *939:X 0.000179842
8 *81:142 0.00131309
9 *81:122 0.00139463
10 *81:92 0.00292392
11 *81:72 0.00253785
12 *81:28 0.00330137
13 *81:12 0.00368386
14 *944:A *985:C1 0.00010588
15 *991:B1 *84:83 3.08664e-05
16 *991:B1 *96:28 0.000131745
17 *991:B1 *116:98 0.000294816
18 *991:B1 *138:34 7.22577e-05
19 *1117:A *1018:A 6.4974e-06
20 *1117:A *1117:C 4.6025e-06
21 *1117:A *82:54 2.06178e-05
22 *1117:A *268:30 7.96587e-06
23 *1130:A *964:A 6.10295e-05
24 *1130:A *985:B1 1.24368e-05
25 *1130:A *1071:A 0.000261235
26 *1130:A *1130:B 5.982e-05
27 *1130:A *1130:C 0.000500299
28 *1130:A *1173:CLK 0.000122527
29 *1130:A *96:28 0.000325853
30 *1130:A *96:42 2.46688e-05
31 *1130:A *116:98 0.00010861
32 *1142:A *1008:A1 5.45307e-05
33 *1142:A *1021:B1 0.000392316
34 *1142:A *1142:C 0.000517768
35 *1142:A *1180:CLK 9.6581e-05
36 *1142:A *106:80 0.000817899
37 *1142:A *109:50 0.000113942
38 *1142:A *130:39 0.00100625
39 *1142:A *152:42 1.59373e-05
40 *1142:A *222:30 0.000840021
41 *81:12 *85:63 1.06389e-05
42 *81:12 *194:14 2.11419e-05
43 *81:12 *235:60 0.000127359
44 *81:12 *267:14 2.11419e-05
45 *81:28 *953:C1 0.000128768
46 *81:28 *1002:S 1.86494e-05
47 *81:28 *1020:A 0.00037734
48 *81:28 *1021:B1 0.000222595
49 *81:28 *1097:B2 2.64044e-05
50 *81:28 *1115:A0 0.000621981
51 *81:28 *85:63 5.3976e-05
52 *81:28 *87:32 0.000839683
53 *81:28 *110:53 0.000136356
54 *81:28 *160:20 0.000130243
55 *81:28 *222:30 0.000503755
56 *81:28 *236:156 0.000247908
57 *81:28 *236:173 0.000419344
58 *81:72 *972:B1 0.000711795
59 *81:72 *977:A_N 0.000138634
60 *81:72 *982:B 0.000138634
61 *81:72 *1003:A_N 9.04253e-06
62 *81:72 *100:65 0.000110967
63 *81:72 *108:49 4.88232e-05
64 *81:72 *131:36 6.07847e-05
65 *81:72 *157:18 0.000274889
66 *81:72 *191:79 0.000189979
67 *81:72 *257:49 2.82126e-05
68 *81:72 *263:44 0.000157816
69 *81:72 *268:30 0.000163737
70 *81:92 *100:65 0.000114522
71 *81:92 *145:41 0.000240284
72 *81:92 *157:18 0.000231774
73 *81:92 *212:60 0.00112632
74 *81:92 *227:51 0.000604708
75 *81:92 *234:16 0.000162444
76 *81:92 *250:64 5.19805e-05
77 *81:92 *250:78 0.000150899
78 *81:142 *975:B 1.65923e-05
79 *81:142 *1080:A 3.0114e-05
80 *81:142 *1104:A 6.4974e-06
81 *81:142 *1126:A1 0.000263
82 *81:142 *1177:CLK 0.000390414
83 *81:142 *82:54 0.000136237
84 *81:142 *127:31 9.5393e-05
85 *81:142 *176:12 0.000854044
86 *81:142 *206:18 1.02301e-05
87 *81:142 *206:34 0.000293495
88 *81:142 *235:10 0.000338592
89 *81:142 *235:31 4.33704e-05
90 *936:A *81:142 0.000224426
91 *937:A *81:72 1.84474e-05
92 *1116:A *81:92 0.000852654
93 *1132:B *81:28 0
94 *1137:A *81:28 0.000234737
95 *1159:D *944:A 5.33005e-05
96 *1163:D *1130:A 0.000375884
97 *1166:D *81:92 0.00134476
98 *1172:D *81:92 2.99471e-05
99 *1182:RESET_B *81:142 0.000145473
100 *1184:D *944:A 0.000107398
101 *24:26 *1117:A 2.30116e-06
102 *24:26 *81:142 2.27209e-05
103 *32:64 *81:28 4.21517e-05
104 *46:20 *81:28 1.68854e-05
105 *55:14 *1117:A 9.21418e-06
106 *55:14 *81:142 1.95625e-05
107 *57:36 *81:142 4.81832e-05
108 *57:50 *81:92 8.44271e-06
109 *57:50 *81:142 2.5868e-05
110 *76:32 *81:12 0.000338817
111 *76:32 *81:28 0.000665317
112 *78:51 *81:72 0.000599195
113 *78:84 *81:12 8.94491e-05
114 *78:84 *81:28 0.000242142
115 *78:84 *81:72 0.000828047
116 *80:38 *81:12 4.63789e-05
*RES
1 *939:X *81:12 18.1103 
2 *81:12 *81:28 15.4271 
3 *81:28 *1142:A 39.6531 
4 *81:28 *944:A 19.2368 
5 *81:12 *81:72 19.9606 
6 *81:72 *81:92 42.2013 
7 *81:92 *1130:A 37.3714 
8 *81:92 *991:B1 19.3714 
9 *81:72 *81:122 3.41 
10 *81:122 *81:142 41.8661 
11 *81:142 *1037:B1 9.3 
12 *81:122 *1117:A 14.9875 
*END

*D_NET *82 0.0539876
*CONN
*I *1037:A1 I *D sky130_fd_sc_hd__o21ai_1
*I *958:A I *D sky130_fd_sc_hd__nor2_1
*I *963:A_N I *D sky130_fd_sc_hd__and3b_1
*I *966:B I *D sky130_fd_sc_hd__and3b_1
*I *945:B1 I *D sky130_fd_sc_hd__a21oi_1
*I *1117:B I *D sky130_fd_sc_hd__or4b_1
*I *979:B I *D sky130_fd_sc_hd__nor2_2
*I *1130:C I *D sky130_fd_sc_hd__nand3_1
*I *991:A1 I *D sky130_fd_sc_hd__o21a_2
*I *943:B I *D sky130_fd_sc_hd__and3_1
*I *940:X O *D sky130_fd_sc_hd__clkbuf_4
*CAP
1 *1037:A1 0.000476511
2 *958:A 2.49437e-05
3 *963:A_N 0
4 *966:B 0.000440171
5 *945:B1 0
6 *1117:B 0
7 *979:B 0
8 *1130:C 0.0011053
9 *991:A1 3.34506e-05
10 *943:B 0.000183567
11 *940:X 0.000893687
12 *82:185 0.00320411
13 *82:162 0.00454915
14 *82:154 0.00134833
15 *82:135 0.00124727
16 *82:79 0.00161818
17 *82:66 0.00239014
18 *82:54 0.0029501
19 *82:30 0.00233557
20 *82:18 0.0025163
21 *82:12 0.00194513
22 *943:B *1024:A 0.000147032
23 *958:A *980:A 1.46231e-05
24 *966:B *1097:A2 9.99644e-06
25 *966:B *1098:B1 5.33005e-05
26 *966:B *84:26 2.42516e-05
27 *966:B *105:8 2.14815e-05
28 *991:A1 *84:89 9.60875e-05
29 *991:A1 *138:34 4.58194e-05
30 *1037:A1 *988:A 0.000150625
31 *1037:A1 *90:24 0.000285715
32 *1037:A1 *128:12 1.27784e-05
33 *1037:A1 *180:39 0.00010326
34 *1037:A1 *212:60 1.02504e-05
35 *1130:C *964:A 0.00030814
36 *1130:C *1019:B 0
37 *1130:C *1028:B1 0.000466893
38 *1130:C *1130:B 5.51861e-05
39 *1130:C *96:28 0
40 *1130:C *96:42 0.000104208
41 *1130:C *162:28 0.000316698
42 *1130:C *175:12 2.06112e-05
43 *1130:C *209:18 3.83535e-05
44 *1130:C *255:20 0.000209583
45 *1130:C *255:71 0.000520373
46 *1130:C *258:22 6.09764e-05
47 *82:12 *976:A2 4.22986e-05
48 *82:12 *976:B1 0.000123195
49 *82:12 *988:B 0
50 *82:12 *89:48 5.61727e-05
51 *82:12 *127:31 2.38501e-05
52 *82:12 *216:79 0
53 *82:12 *240:14 0.00111441
54 *82:12 *243:20 0.000386122
55 *82:12 *260:42 0.000440698
56 *82:18 *986:A2 0.000299638
57 *82:18 *986:B1 0.000180496
58 *82:18 *90:24 0.000136719
59 *82:18 *108:65 3.57475e-05
60 *82:18 *125:6 6.8445e-06
61 *82:18 *176:12 7.74135e-05
62 *82:18 *212:60 0.000233567
63 *82:18 *223:38 6.28149e-06
64 *82:30 *1041:A1 4.34853e-05
65 *82:30 *1041:S 5.23735e-05
66 *82:30 *1050:S 6.94952e-05
67 *82:30 *1088:A 0.000162921
68 *82:30 *118:59 0.000150984
69 *82:54 *1126:A1 0.000260683
70 *82:54 *100:65 0.000195577
71 *82:54 *121:85 4.58194e-05
72 *82:54 *138:24 0.000159559
73 *82:54 *141:36 0.000616358
74 *82:54 *145:41 0.000430308
75 *82:54 *151:27 0.000227437
76 *82:54 *157:18 0.00031476
77 *82:54 *183:34 0.000230524
78 *82:54 *247:18 2.17548e-05
79 *82:66 *1164:CLK 6.30226e-05
80 *82:66 *147:24 0.000111763
81 *82:66 *205:57 0.00125312
82 *82:66 *239:56 0
83 *82:79 *1028:B1 6.96575e-05
84 *82:79 *85:20 0
85 *82:79 *151:10 0.000583358
86 *82:79 *155:26 3.06094e-05
87 *82:79 *220:24 0
88 *82:135 *945:A1 0.000252097
89 *82:135 *1093:B1 0.000991628
90 *82:135 *1105:A 9.00864e-05
91 *82:135 *83:94 0.000171414
92 *82:135 *88:70 1.20109e-05
93 *82:135 *121:18 0.000993701
94 *82:135 *131:36 8.69554e-05
95 *82:135 *193:10 8.23132e-05
96 *82:135 *242:24 7.9823e-05
97 *82:154 *946:B 0.000325047
98 *82:154 *980:A 2.84026e-05
99 *82:154 *88:70 3.26283e-05
100 *82:154 *193:10 0.000364285
101 *82:154 *223:18 4.58194e-05
102 *82:162 *958:B 9.54798e-06
103 *82:162 *1029:B1_N 3.17163e-05
104 *82:162 *97:20 7.6644e-05
105 *82:162 *105:8 5.94896e-06
106 *82:162 *128:44 0.000680612
107 *82:162 *167:38 0.000101586
108 *82:162 *207:18 2.18964e-05
109 *82:162 *256:34 0
110 *82:185 *1055:A3 0.000103506
111 *82:185 *1180:CLK 0.00055226
112 *82:185 *85:63 0.000119347
113 *82:185 *90:106 0.00170346
114 *82:185 *104:14 0.000175892
115 *82:185 *106:65 0
116 *82:185 *116:23 9.28971e-05
117 *82:185 *136:24 0.00407768
118 *82:185 *185:55 0
119 *82:185 *207:38 0.000125197
120 *82:185 *211:18 5.59676e-05
121 *82:185 *219:20 0
122 *955:A_N *82:54 3.10819e-05
123 *955:A_N *82:66 3.31604e-05
124 *1003:D *82:30 0.000136036
125 *1113:S *82:54 1.32516e-05
126 *1113:S *82:66 0.000140138
127 *1117:A *82:54 2.06178e-05
128 *1130:A *1130:C 0.000500299
129 *1163:D *1130:C 0.000235651
130 *1164:D *82:66 0.000161289
131 *49:39 *82:79 2.62601e-05
132 *55:14 *82:30 5.33005e-05
133 *55:14 *82:54 0.000117896
134 *56:22 *82:135 4.47378e-05
135 *56:22 *82:154 3.45899e-05
136 *57:36 *82:18 1.90936e-05
137 *57:36 *82:135 0.000170318
138 *57:50 *82:54 0.000174216
139 *57:87 *1130:C 6.47101e-05
140 *57:87 *82:79 0.000530127
141 *64:68 *82:18 6.15188e-05
142 *64:68 *82:135 4.83126e-05
143 *65:8 *82:185 0.000141343
144 *65:28 *82:185 0.000685245
145 *77:117 *82:30 0.000218404
146 *78:99 *82:185 0.000104252
147 *81:142 *82:54 0.000136237
*RES
1 *940:X *82:12 37.6393 
2 *82:12 *82:18 15.0357 
3 *82:18 *82:30 18.875 
4 *82:30 *82:54 41.7679 
5 *82:54 *82:66 32.7679 
6 *82:66 *943:B 16.3893 
7 *82:66 *82:79 11.2857 
8 *82:79 *991:A1 14.7464 
9 *82:79 *1130:C 41.9607 
10 *82:54 *979:B 13.8 
11 *82:30 *1117:B 9.3 
12 *82:18 *82:135 21.6827 
13 *82:135 *945:B1 13.8 
14 *82:135 *82:154 13.7679 
15 *82:154 *82:162 22.4107 
16 *82:162 *966:B 13.9429 
17 *82:162 *82:185 42.0915 
18 *82:185 *963:A_N 9.3 
19 *82:154 *958:A 9.83571 
20 *82:12 *1037:A1 25.7107 
*END

*D_NET *83 0.0400681
*CONN
*I *942:A I *D sky130_fd_sc_hd__clkbuf_4
*I *963:B I *D sky130_fd_sc_hd__and3b_1
*I *1002:S I *D sky130_fd_sc_hd__mux2_2
*I *954:B_N I *D sky130_fd_sc_hd__or2b_2
*I *952:C I *D sky130_fd_sc_hd__and4bb_1
*I *949:B I *D sky130_fd_sc_hd__nand3b_4
*I *958:B I *D sky130_fd_sc_hd__nor2_1
*I *1005:A I *D sky130_fd_sc_hd__or3_2
*I *1007:B I *D sky130_fd_sc_hd__and4b_1
*I *1010:B I *D sky130_fd_sc_hd__and2b_1
*I *941:X O *D sky130_fd_sc_hd__clkbuf_4
*CAP
1 *942:A 2.25507e-05
2 *963:B 0.000414344
3 *1002:S 0.000189574
4 *954:B_N 0.000229202
5 *952:C 0
6 *949:B 0.00010047
7 *958:B 0.00037519
8 *1005:A 3.36058e-05
9 *1007:B 0
10 *1010:B 0
11 *941:X 5.02119e-05
12 *83:167 0.00114835
13 *83:152 0.00115447
14 *83:146 0.00132583
15 *83:94 0.00227074
16 *83:61 0.0019348
17 *83:48 0.00146686
18 *83:30 0.00289117
19 *83:20 0.00242963
20 *83:10 0.00122208
21 *83:8 0.00121703
22 *949:B *1075:A1 1.16198e-05
23 *949:B *1152:A1 5.00087e-06
24 *949:B *160:20 0.000273453
25 *949:B *222:30 0.00026854
26 *954:B_N *1132:A 7.58537e-05
27 *954:B_N *207:38 0
28 *958:B *108:49 4.04359e-05
29 *958:B *119:30 0.000353633
30 *958:B *150:60 0.000351985
31 *958:B *185:63 0.00019061
32 *958:B *186:28 4.22135e-06
33 *958:B *207:18 5.0737e-05
34 *958:B *224:12 0
35 *958:B *256:34 0.000366663
36 *963:B *1180:CLK 0.000103775
37 *963:B *93:22 0.00073433
38 *963:B *93:37 0.000431186
39 *963:B *102:16 3.41261e-05
40 *963:B *167:32 0.000764
41 *1002:S *96:42 9.99853e-05
42 *1005:A *1005:C 5.20751e-05
43 *1005:A *1191:A 0.000143375
44 *83:8 *84:14 3.10885e-05
45 *83:8 *108:10 1.60861e-05
46 *83:8 *235:86 8.6229e-06
47 *83:10 *953:C1 4.24752e-05
48 *83:10 *1148:A0 0.000249428
49 *83:10 *108:10 0.000127842
50 *83:10 *235:86 1.90936e-05
51 *83:20 *953:C1 6.28948e-05
52 *83:20 *1054:A 0.000626001
53 *83:20 *1098:A1 7.97272e-05
54 *83:20 *1148:A0 6.28948e-05
55 *83:20 *87:32 0.0002825
56 *83:20 *110:53 5.636e-06
57 *83:20 *120:76 1.84474e-05
58 *83:20 *146:26 0
59 *83:20 *154:18 0
60 *83:20 *200:30 0.000775491
61 *83:30 *1007:C 2.22043e-05
62 *83:30 *120:76 0.00102507
63 *83:30 *155:63 0.000304664
64 *83:30 *234:148 8.18654e-05
65 *83:30 *247:46 9.13872e-05
66 *83:30 *252:48 0.000717269
67 *83:48 *1039:B1 0
68 *83:48 *112:57 0.00144349
69 *83:48 *121:50 7.54868e-05
70 *83:48 *121:85 4.22135e-06
71 *83:48 *141:36 9.42829e-05
72 *83:48 *149:18 0.00139593
73 *83:48 *192:20 0.00012116
74 *83:48 *198:18 0.000631809
75 *83:48 *223:38 0.00019249
76 *83:48 *223:54 0.00072987
77 *83:48 *227:51 0.000312077
78 *83:48 *234:148 0.000117919
79 *83:48 *236:49 0.000119065
80 *83:48 *236:73 2.33936e-05
81 *83:48 *243:20 7.6997e-05
82 *83:61 *1007:C 2.06178e-05
83 *83:61 *236:49 1.03403e-05
84 *83:94 *935:A 0.000232064
85 *83:94 *977:A_N 5.03579e-05
86 *83:94 *1007:A_N 1.98839e-05
87 *83:94 *1032:A2 0.000678783
88 *83:94 *1146:A0 9.76028e-05
89 *83:94 *1192:A 7.20217e-06
90 *83:94 *95:73 0.000159527
91 *83:94 *198:28 0.000106866
92 *83:94 *234:163 0.000180355
93 *83:94 *236:39 9.21118e-05
94 *83:94 *242:24 0.000183111
95 *83:94 *245:14 0.00174769
96 *83:94 *256:34 2.11419e-05
97 *83:146 *84:14 0.000575618
98 *83:167 *1008:A2 0
99 *963:C *1002:S 7.3475e-05
100 *963:C *83:167 0.000169648
101 *1002:A1 *1002:S 0.000123685
102 *1007:D *83:94 5.33005e-05
103 *1010:A_N *83:48 0.000515447
104 *1132:B *954:B_N 7.58067e-05
105 *1132:B *83:167 0
106 *1144:S *1002:S 9.99853e-05
107 *1162:D *83:94 1.46231e-05
108 *21:34 *83:20 0.000128253
109 *21:34 *83:48 8.71197e-05
110 *34:28 *83:30 0.000126744
111 *39:28 *958:B 8.5552e-05
112 *46:20 *1002:S 0.00022433
113 *46:20 *83:167 0.000128305
114 *50:18 *83:94 7.90104e-05
115 *58:28 *83:167 0
116 *62:14 *83:94 1.50961e-05
117 *64:32 *83:30 0.000288594
118 *65:8 *83:146 5.26789e-05
119 *65:8 *83:152 9.88185e-05
120 *77:6 *83:94 5.47047e-05
121 *77:10 *83:94 0.000288238
122 *77:43 *83:30 1.52299e-05
123 *77:43 *83:61 5.22069e-05
124 *77:49 *949:B 9.54798e-06
125 *78:99 *83:152 4.23853e-06
126 *81:28 *1002:S 1.86494e-05
127 *82:135 *83:94 0.000171414
128 *82:162 *958:B 9.54798e-06
*RES
1 *941:X *83:8 14.8357 
2 *83:8 *83:10 4.98214 
3 *83:10 *83:20 10.5506 
4 *83:20 *83:30 11.7409 
5 *83:30 *83:48 49.9821 
6 *83:48 *1010:B 13.8 
7 *83:30 *83:61 6.17857 
8 *83:61 *1007:B 9.3 
9 *83:61 *83:94 38.3753 
10 *83:94 *1005:A 15.1571 
11 *83:94 *958:B 33.7464 
12 *83:20 *949:B 21.3402 
13 *83:10 *952:C 13.8 
14 *83:8 *83:146 16.9464 
15 *83:146 *83:152 9.26786 
16 *83:152 *954:B_N 17.2464 
17 *83:152 *83:167 8.625 
18 *83:167 *1002:S 18.4429 
19 *83:167 *963:B 35.3536 
20 *83:146 *942:A 9.72857 
*END

*D_NET *84 0.0365302
*CONN
*I *1055:A1 I *D sky130_fd_sc_hd__o31a_1
*I *966:C I *D sky130_fd_sc_hd__and3b_1
*I *945:A2 I *D sky130_fd_sc_hd__a21oi_1
*I *1037:A2 I *D sky130_fd_sc_hd__o21ai_1
*I *1105:B I *D sky130_fd_sc_hd__and3_1
*I *991:A2 I *D sky130_fd_sc_hd__o21a_2
*I *943:C I *D sky130_fd_sc_hd__and3_1
*I *947:B I *D sky130_fd_sc_hd__xor2_1
*I *1117:C I *D sky130_fd_sc_hd__or4b_1
*I *942:X O *D sky130_fd_sc_hd__clkbuf_4
*CAP
1 *1055:A1 0.000227455
2 *966:C 4.36033e-05
3 *945:A2 0.000385383
4 *1037:A2 0.00045145
5 *1105:B 0
6 *991:A2 0
7 *943:C 8.73305e-05
8 *947:B 0.000377506
9 *1117:C 8.13954e-05
10 *942:X 0.000903241
11 *84:130 0.00157784
12 *84:89 0.00103581
13 *84:83 0.000892445
14 *84:81 0.00192834
15 *84:46 0.00197836
16 *84:38 0.00189663
17 *84:32 0.00134999
18 *84:26 0.00129392
19 *84:14 0.00189655
20 *943:C *1024:A 2.39515e-05
21 *943:C *85:20 5.60463e-06
22 *945:A2 *178:71 0.000299965
23 *947:B *1024:A 0.000518222
24 *947:B *85:20 0
25 *947:B *134:33 5.33005e-05
26 *947:B *239:50 1.98839e-05
27 *947:B *239:56 7.58517e-05
28 *966:C *1097:A2 5.33005e-05
29 *1037:A2 *1080:A 0.000105116
30 *1037:A2 *1105:A 3.06035e-05
31 *1037:A2 *128:12 1.37255e-05
32 *1037:A2 *166:26 0.000105874
33 *1037:A2 *180:8 6.13757e-06
34 *1037:A2 *180:39 0.000161468
35 *1037:A2 *245:20 0.00028018
36 *1055:A1 *1055:A2 4.88637e-05
37 *1055:A1 *1055:A3 1.39726e-05
38 *1055:A1 *1055:B1 0.000302728
39 *1117:C *234:16 0
40 *1117:C *268:30 0.000119679
41 *84:14 *1055:B1 0.00115013
42 *84:14 *108:10 0.000424423
43 *84:26 *977:B 0
44 *84:26 *1087:A1 0
45 *84:26 *1097:A2 9.60939e-05
46 *84:26 *1098:B1 1.5976e-05
47 *84:26 *1107:A0 0
48 *84:26 *159:18 0.000375027
49 *84:26 *194:14 0
50 *84:26 *201:80 4.65934e-05
51 *84:26 *221:37 0
52 *84:26 *235:60 8.63728e-05
53 *84:26 *267:14 0.000164395
54 *84:32 *1031:B 9.66219e-05
55 *84:32 *1058:D 0.000118573
56 *84:32 *155:98 6.4542e-05
57 *84:32 *159:18 0.000275147
58 *84:32 *178:71 8.55871e-05
59 *84:32 *201:80 0.000690244
60 *84:38 *1062:A2 8.48654e-05
61 *84:38 *1128:A0 0.00037221
62 *84:38 *155:98 0.000272299
63 *84:38 *179:34 0.000178466
64 *84:38 *267:14 0.00101056
65 *84:46 *1056:A2 0.000543665
66 *84:46 *1062:A3 0.000504731
67 *84:46 *198:24 5.33005e-05
68 *84:46 *198:28 2.95642e-05
69 *84:46 *234:8 9.54798e-06
70 *84:46 *234:16 0
71 *84:46 *268:30 2.45288e-05
72 *84:81 *1003:A_N 6.90249e-05
73 *84:81 *1025:B1 2.39838e-05
74 *84:81 *1027:B 0.000505029
75 *84:81 *120:76 0.000542613
76 *84:81 *155:63 0.000284956
77 *84:81 *157:18 6.3377e-05
78 *84:81 *198:24 6.09762e-05
79 *84:81 *201:16 0.000478339
80 *84:81 *236:49 2.64888e-05
81 *84:81 *247:18 4.65519e-05
82 *84:81 *269:26 0.000278005
83 *84:83 *130:10 0.000168514
84 *84:83 *130:78 5.33005e-05
85 *84:83 *138:34 0.00119577
86 *84:83 *231:10 0.000582579
87 *84:89 *1170:CLK 5.00994e-05
88 *84:89 *85:20 0
89 *84:89 *130:10 0.000516715
90 *84:89 *138:34 0.000141373
91 *84:89 *155:22 3.14137e-05
92 *84:89 *250:64 0.000107843
93 *84:130 *992:B1 0.000109184
94 *84:130 *1050:S 0.000302307
95 *84:130 *1056:A2 0.000300137
96 *84:130 *1056:B1 0.000183513
97 *84:130 *1062:A3 4.18895e-05
98 *84:130 *1105:A 1.4796e-05
99 *84:130 *89:48 0.00035152
100 *84:130 *112:30 9.77264e-06
101 *84:130 *118:59 0.000216096
102 *84:130 *194:14 0.00034188
103 *84:130 *195:12 0.000671745
104 *84:130 *206:34 5.32964e-05
105 *84:130 *250:78 5.25862e-06
106 *966:B *84:26 2.42516e-05
107 *991:A1 *84:89 9.60875e-05
108 *991:B1 *84:83 3.08664e-05
109 *1111:S *84:89 0.000410632
110 *1114:A *947:B 0
111 *1114:A *84:89 0
112 *1117:A *1117:C 4.6025e-06
113 *1124:S *84:89 0.000154853
114 *1139:A *84:89 4.22135e-06
115 *1177:D *84:81 7.9823e-05
116 *21:34 *84:81 2.4231e-05
117 *24:26 *84:81 0.000875288
118 *49:61 *84:81 0.000601384
119 *65:8 *84:14 0.000369725
120 *78:99 *84:26 0
121 *83:8 *84:14 3.10885e-05
122 *83:146 *84:14 0.000575618
*RES
1 *942:X *84:14 42.2464 
2 *84:14 *84:26 28.0536 
3 *84:26 *84:32 15.8036 
4 *84:32 *84:38 22.7857 
5 *84:38 *84:46 11.8393 
6 *84:46 *1117:C 15.4429 
7 *84:46 *84:81 43.5809 
8 *84:81 *84:83 12.8571 
9 *84:83 *84:89 18.3304 
10 *84:89 *947:B 21.1839 
11 *84:89 *943:C 15.2196 
12 *84:83 *991:A2 9.3 
13 *84:38 *84:130 31.0893 
14 *84:130 *1105:B 9.3 
15 *84:130 *1037:A2 26.8536 
16 *84:32 *945:A2 15.6036 
17 *84:26 *966:C 14.3357 
18 *84:14 *1055:A1 13.9607 
*END

*D_NET *85 0.0236449
*CONN
*I *946:A I *D sky130_fd_sc_hd__nor2_1
*I *944:B I *D sky130_fd_sc_hd__xor2_1
*I *943:X O *D sky130_fd_sc_hd__and3_1
*CAP
1 *946:A 0
2 *944:B 5.20387e-05
3 *943:X 0.00251979
4 *85:63 0.00361589
5 *85:20 0.00618772
6 *944:B *985:C1 6.69937e-05
7 *944:B *173:38 2.68192e-05
8 *944:B *208:81 1.95498e-05
9 *85:20 *950:B 0.000111411
10 *85:20 *1000:B1 0.000189018
11 *85:20 *1065:A 7.13826e-05
12 *85:20 *95:18 0.00142596
13 *85:20 *98:42 0.00075326
14 *85:20 *155:26 0.000101721
15 *85:20 *155:133 3.2998e-05
16 *85:20 *185:20 0.000197088
17 *85:20 *226:30 0.000552309
18 *85:63 *946:B 0.000611502
19 *85:63 *950:B 0.000216386
20 *85:63 *1020:A 0.00167483
21 *85:63 *1055:B1 6.24358e-05
22 *85:63 *1087:A0 8.25114e-05
23 *85:63 *1097:A2 0.000375382
24 *85:63 *1097:B1 5.01285e-05
25 *85:63 *1124:A1 4.65519e-05
26 *85:63 *1148:A0 4.98422e-05
27 *85:63 *88:12 0.000137292
28 *85:63 *98:42 0.000493987
29 *85:63 *106:57 0.000138849
30 *85:63 *110:53 0.000158433
31 *85:63 *116:23 0.000141302
32 *85:63 *121:18 0.000137983
33 *85:63 *128:44 6.26129e-05
34 *85:63 *141:14 0.000807252
35 *85:63 *167:38 1.02821e-05
36 *85:63 *168:20 0.000457203
37 *85:63 *235:60 1.90269e-05
38 *85:63 *247:71 0.000742946
39 *85:63 *263:18 3.97677e-05
40 *943:C *85:20 5.60463e-06
41 *947:B *85:20 0
42 *1111:S *85:20 8.07025e-05
43 *39:28 *944:B 4.65519e-05
44 *44:22 *85:20 0.000393137
45 *48:36 *85:20 7.69776e-06
46 *49:39 *85:20 0.000276339
47 *65:28 *85:63 1.13265e-05
48 *76:32 *85:63 4.2203e-05
49 *78:84 *85:63 9.25557e-05
50 *80:38 *85:63 6.43226e-05
51 *81:12 *85:63 1.06389e-05
52 *81:28 *85:63 5.3976e-05
53 *82:79 *85:20 0
54 *82:185 *85:63 0.000119347
55 *84:89 *85:20 0
*RES
1 *943:X *85:20 35.5616 
2 *85:20 *944:B 21.587 
3 *85:20 *85:63 43.768 
4 *85:63 *946:A 9.3 
*END

*D_NET *86 0.0032249
*CONN
*I *946:B I *D sky130_fd_sc_hd__nor2_1
*I *945:Y O *D sky130_fd_sc_hd__a21oi_1
*CAP
1 *946:B 0.000604625
2 *945:Y 0.000604625
3 *946:B *122:62 0.000173029
4 *946:B *167:38 0.000117392
5 *946:B *193:10 0.000277942
6 *946:B *197:16 0.000506698
7 *946:B *218:16 4.038e-06
8 *82:154 *946:B 0.000325047
9 *85:63 *946:B 0.000611502
*RES
1 *945:Y *946:B 45.1357 
*END

*D_NET *87 0.008494
*CONN
*I *953:A1 I *D sky130_fd_sc_hd__a211o_1
*I *948:Y O *D sky130_fd_sc_hd__inv_2
*CAP
1 *953:A1 4.61969e-05
2 *948:Y 0.00192332
3 *87:32 0.00196951
4 *953:A1 *953:A2 9.54798e-06
5 *953:A1 *953:C1 0
6 *87:32 *953:C1 0.000131566
7 *87:32 *1020:A 0.000844672
8 *87:32 *1075:A1 1.9188e-05
9 *87:32 *88:54 0
10 *87:32 *96:42 0.00128524
11 *87:32 *97:20 9.14714e-06
12 *87:32 *98:42 0.000179037
13 *87:32 *110:53 8.09008e-05
14 *87:32 *128:44 0.000179037
15 *87:32 *141:14 6.09762e-05
16 *87:32 *201:116 4.35597e-05
17 *87:32 *235:86 8.37661e-05
18 *952:D *87:32 9.63528e-05
19 *72:12 *87:32 9.60939e-05
20 *76:32 *953:A1 5.20232e-05
21 *76:32 *87:32 0.000169291
22 *77:49 *87:32 9.23883e-05
23 *81:28 *87:32 0.000839683
24 *83:20 *87:32 0.0002825
*RES
1 *948:Y *87:32 49.967 
2 *87:32 *953:A1 14.5321 
*END

*D_NET *88 0.0277849
*CONN
*I *953:A2 I *D sky130_fd_sc_hd__a211o_1
*I *1004:A2 I *D sky130_fd_sc_hd__a211o_1
*I *976:A2 I *D sky130_fd_sc_hd__a211o_2
*I *1008:A2 I *D sky130_fd_sc_hd__a211o_1
*I *983:A I *D sky130_fd_sc_hd__dlymetal6s2s_1
*I *949:Y O *D sky130_fd_sc_hd__nand3b_4
*CAP
1 *953:A2 0.000207158
2 *1004:A2 7.09744e-05
3 *976:A2 0.00109422
4 *1008:A2 0.00229776
5 *983:A 0.000186275
6 *949:Y 2.13113e-05
7 *88:70 0.00252998
8 *88:54 0.00242435
9 *88:12 0.00289233
10 *88:6 0.00128201
11 *953:A2 *953:B1 8.40468e-05
12 *953:A2 *188:14 1.72894e-05
13 *953:A2 *222:30 1.90936e-05
14 *976:A2 *976:A1 3.61656e-05
15 *976:A2 *976:B1 1.51467e-05
16 *976:A2 *988:B 0.000439933
17 *976:A2 *1006:A3 1.21258e-05
18 *976:A2 *1195:A 9.41642e-05
19 *976:A2 *90:24 0.000333909
20 *976:A2 *121:50 0
21 *976:A2 *206:34 0.00054343
22 *976:A2 *223:38 0.000951378
23 *976:A2 *243:20 0
24 *983:A *93:37 0.000487601
25 *983:A *122:8 1.05731e-05
26 *983:A *167:32 0.000548732
27 *1004:A2 *1004:C1 0.000293639
28 *1004:A2 *238:70 0.000306076
29 *1008:A2 *1015:A 0
30 *1008:A2 *1015:B 1.00073e-05
31 *1008:A2 *90:106 5.38741e-05
32 *1008:A2 *106:57 6.25475e-05
33 *1008:A2 *153:45 0.00210744
34 *1008:A2 *154:18 0
35 *1008:A2 *207:38 0.000113531
36 *1008:A2 *236:194 0.000318359
37 *88:12 *949:A_N 8.88566e-05
38 *88:12 *106:57 0.000126711
39 *88:12 *128:44 6.94441e-06
40 *88:12 *132:12 2.32625e-05
41 *88:12 *170:35 8.85532e-05
42 *88:12 *236:194 0.000311501
43 *88:54 *953:B1 1.90936e-05
44 *88:54 *1094:A1 9.51343e-06
45 *88:54 *90:84 5.77518e-06
46 *88:54 *90:106 0.000170436
47 *88:54 *93:53 0.000194629
48 *88:54 *145:75 0.000170436
49 *88:54 *170:35 7.03393e-05
50 *88:54 *173:38 0.000169801
51 *88:70 *945:A1 0.00043051
52 *88:70 *972:B2 0.000107449
53 *88:70 *1004:C1 0.00034127
54 *88:70 *1042:A3 7.48005e-05
55 *88:70 *119:30 0.00093201
56 *88:70 *174:29 0.0002219
57 *88:70 *181:28 0.000718973
58 *88:70 *197:16 9.7196e-05
59 *88:70 *197:28 5.41794e-05
60 *88:70 *218:16 0.00103633
61 *88:70 *238:70 0.000339346
62 *88:70 *256:22 0.000558305
63 *953:A1 *953:A2 9.54798e-06
64 *1107:S *88:54 0.000196266
65 *39:28 *88:54 0.000766764
66 *58:28 *1008:A2 8.03902e-05
67 *64:68 *88:70 4.58854e-05
68 *76:32 *953:A2 5.00087e-06
69 *77:43 *88:54 0.000168064
70 *77:49 *88:54 5.52238e-05
71 *82:12 *976:A2 4.22986e-05
72 *82:135 *88:70 1.20109e-05
73 *82:154 *88:70 3.26283e-05
74 *83:167 *1008:A2 0
75 *85:63 *88:12 0.000137292
76 *87:32 *88:54 0
*RES
1 *949:Y *88:6 9.72857 
2 *88:6 *88:12 12.9821 
3 *88:12 *983:A 19.6929 
4 *88:12 *1008:A2 49.4071 
5 *88:6 *88:54 20.0213 
6 *88:54 *88:70 47.6964 
7 *88:70 *976:A2 41.6393 
8 *88:70 *1004:A2 12.3 
9 *88:54 *953:A2 16.9607 
*END

*D_NET *89 0.0234835
*CONN
*I *1004:B1 I *D sky130_fd_sc_hd__a211o_1
*I *951:A I *D sky130_fd_sc_hd__clkbuf_2
*I *976:B1 I *D sky130_fd_sc_hd__a211o_2
*I *950:Y O *D sky130_fd_sc_hd__nor3b_2
*CAP
1 *1004:B1 0.000182135
2 *951:A 0.000216019
3 *976:B1 0.000682599
4 *950:Y 0.00353992
5 *89:48 0.00181548
6 *89:22 0.00463892
7 *951:A *90:24 6.57914e-05
8 *951:A *243:20 0.000136958
9 *976:B1 *988:B 0
10 *976:B1 *1006:A3 1.95808e-05
11 *976:B1 *121:50 0.000262746
12 *976:B1 *144:20 2.04866e-05
13 *976:B1 *206:18 0.000673823
14 *1004:B1 *1096:A 0.000175892
15 *1004:B1 *250:78 7.54868e-05
16 *1004:B1 *260:36 3.6337e-05
17 *89:22 *950:A 5.20298e-05
18 *89:22 *972:B1 0.00021109
19 *89:22 *972:B2 0.000451319
20 *89:22 *981:B1 0.00203749
21 *89:22 *1009:B1 8.92267e-05
22 *89:22 *1097:A2 0.000186165
23 *89:22 *1128:A0 7.68283e-05
24 *89:22 *106:95 8.75325e-05
25 *89:22 *119:46 0.000227601
26 *89:22 *121:18 0.000262992
27 *89:22 *204:28 0.00354388
28 *89:22 *206:34 0
29 *89:22 *223:38 0
30 *89:22 *242:24 0.000223704
31 *89:22 *252:48 7.59906e-05
32 *89:48 *1050:S 0.000137561
33 *89:48 *1105:A 4.15526e-05
34 *89:48 *90:24 1.98839e-05
35 *89:48 *121:50 6.72214e-05
36 *89:48 *240:14 0.000404351
37 *89:48 *242:24 0.00016203
38 *89:48 *243:20 0.000423075
39 *89:48 *250:78 0.000332677
40 *976:A2 *976:B1 1.51467e-05
41 *1009:A1 *89:22 0.000550071
42 *1153:A *976:B1 0.000368111
43 *37:12 *89:22 1.26641e-05
44 *63:30 *89:22 4.1261e-05
45 *64:12 *89:22 0.000298518
46 *64:32 *89:22 1.04376e-05
47 *82:12 *976:B1 0.000123195
48 *82:12 *89:48 5.61727e-05
49 *84:130 *89:48 0.00035152
*RES
1 *950:Y *89:22 34.7796 
2 *89:22 *89:48 33.5714 
3 *89:48 *976:B1 42.3536 
4 *89:48 *951:A 12.7107 
5 *89:22 *1004:B1 25.6036 
*END

*D_NET *90 0.0354836
*CONN
*I *953:B1 I *D sky130_fd_sc_hd__a211o_1
*I *1008:B1 I *D sky130_fd_sc_hd__a211o_1
*I *1053:B I *D sky130_fd_sc_hd__or2_1
*I *1081:A I *D sky130_fd_sc_hd__clkbuf_1
*I *951:X O *D sky130_fd_sc_hd__clkbuf_2
*CAP
1 *953:B1 0.000351653
2 *1008:B1 0
3 *1053:B 0
4 *1081:A 0
5 *951:X 0.00116722
6 *90:106 0.00239215
7 *90:84 0.0032332
8 *90:70 0.00211933
9 *90:42 0.00239764
10 *90:34 0.00236818
11 *90:24 0.00276769
12 *953:B1 *953:C1 2.11419e-05
13 *953:B1 *959:A1 1.24368e-05
14 *953:B1 *1038:A 3.40538e-05
15 *953:B1 *120:88 4.20044e-05
16 *953:B1 *159:18 0.000103199
17 *953:B1 *222:30 0.000218719
18 *90:24 *100:65 0.000156399
19 *90:24 *121:50 4.65158e-06
20 *90:24 *121:85 0.000137805
21 *90:24 *125:6 3.08664e-05
22 *90:24 *130:78 0.000184681
23 *90:24 *206:34 7.28356e-05
24 *90:24 *212:60 0.000195165
25 *90:24 *243:20 0.000517798
26 *90:34 *1096:A 0.00034188
27 *90:34 *1100:B 0.000153168
28 *90:34 *234:91 3.53533e-05
29 *90:34 *236:49 0.00024513
30 *90:34 *247:46 7.18124e-05
31 *90:42 *965:A 0.000430315
32 *90:42 *1009:B1 0.000180764
33 *90:42 *1035:A2_N 0.000777431
34 *90:42 *1178:CLK 9.58181e-05
35 *90:42 *103:32 3.50409e-05
36 *90:42 *234:163 0.000137561
37 *90:70 *1026:A0 0.000209843
38 *90:70 *1026:S 2.42516e-05
39 *90:70 *1035:A2_N 0.00058871
40 *90:70 *1041:A0 0.000165185
41 *90:70 *1067:A 0.00038704
42 *90:70 *103:32 0.00033209
43 *90:70 *120:26 0.000149516
44 *90:70 *161:46 0.000292333
45 *90:70 *175:12 0.000144881
46 *90:70 *185:20 0.000589364
47 *90:70 *205:22 0.000176052
48 *90:70 *212:32 0.000326836
49 *90:84 *1035:B1 5.29529e-05
50 *90:84 *1038:B 0.00014666
51 *90:84 *1100:B 0
52 *90:84 *119:46 0.0001489
53 *90:84 *173:38 4.68753e-05
54 *90:84 *251:16 5.05664e-05
55 *90:84 *257:14 3.30915e-05
56 *90:106 *1015:B 0.00179974
57 *90:106 *1038:B 0.000620374
58 *90:106 *1094:A1 3.50637e-05
59 *90:106 *141:18 0.000565136
60 *90:106 *146:26 0.000230185
61 *90:106 *153:45 0.000921549
62 *90:106 *168:49 0.000450235
63 *90:106 *173:38 9.00813e-05
64 *90:106 *207:38 0.000539276
65 *951:A *90:24 6.57914e-05
66 *953:A2 *953:B1 8.40468e-05
67 *976:A2 *90:24 0.000333909
68 *1008:A2 *90:106 5.38741e-05
69 *1009:A1 *90:42 4.94758e-05
70 *1037:A1 *90:24 0.000285715
71 *1111:S *90:70 6.11526e-05
72 *1114:A *90:70 0.00028645
73 *1177:D *90:24 2.63501e-05
74 *1177:D *90:70 1.23462e-05
75 *1185:A *90:70 0.000347758
76 *24:26 *90:70 3.79901e-06
77 *32:64 *90:70 5.55218e-05
78 *57:36 *90:24 3.48429e-05
79 *64:32 *90:70 0.000252313
80 *71:14 *90:24 0.000222428
81 *73:16 *90:24 0.000459049
82 *77:43 *90:34 0.000103434
83 *77:43 *90:84 7.14647e-05
84 *77:117 *90:34 0.000468645
85 *82:18 *90:24 0.000136719
86 *82:185 *90:106 0.00170346
87 *88:54 *953:B1 1.90936e-05
88 *88:54 *90:84 5.77518e-06
89 *88:54 *90:106 0.000170436
90 *89:48 *90:24 1.98839e-05
*RES
1 *951:X *90:24 45.5187 
2 *90:24 *90:34 25.5536 
3 *90:34 *90:42 14.2143 
4 *90:42 *90:70 42.3113 
5 *90:70 *1081:A 9.3 
6 *90:42 *1053:B 9.3 
7 *90:34 *90:84 8.70536 
8 *90:84 *90:106 43.5287 
9 *90:106 *1008:B1 9.3 
10 *90:84 *953:B1 20.7554 
*END

*D_NET *91 0.00373714
*CONN
*I *953:C1 I *D sky130_fd_sc_hd__a211o_1
*I *952:X O *D sky130_fd_sc_hd__and4bb_1
*CAP
1 *953:C1 0.00081985
2 *952:X 0.00081985
3 *953:C1 *1058:B 0.000207462
4 *953:C1 *1078:A3 6.47471e-05
5 *953:C1 *1097:B2 4.90694e-06
6 *953:C1 *1148:A0 0.000144583
7 *953:C1 *97:20 0
8 *953:C1 *108:10 0.000357541
9 *953:C1 *108:18 0.000131096
10 *953:C1 *108:49 0.000187984
11 *953:C1 *120:88 2.06725e-05
12 *953:C1 *208:75 0.000180072
13 *953:C1 *222:30 0.00010994
14 *953:C1 *267:26 0.000180072
15 *953:A1 *953:C1 0
16 *953:B1 *953:C1 2.11419e-05
17 *76:32 *953:C1 0.000121516
18 *81:28 *953:C1 0.000128768
19 *83:10 *953:C1 4.24752e-05
20 *83:20 *953:C1 6.28948e-05
21 *87:32 *953:C1 0.000131566
*RES
1 *952:X *953:C1 47.8149 
*END

*D_NET *92 0.00185896
*CONN
*I *959:A1 I *D sky130_fd_sc_hd__a31o_2
*I *953:X O *D sky130_fd_sc_hd__a211o_1
*CAP
1 *959:A1 0.000543407
2 *953:X 0.000543407
3 *959:A1 *959:B1 5.20232e-05
4 *959:A1 *965:A 8.86584e-05
5 *959:A1 *1055:A2 0.000169917
6 *959:A1 *1058:C 0.000135028
7 *959:A1 *1097:B2 4.16148e-05
8 *959:A1 *120:76 5.88613e-05
9 *959:A1 *159:18 2.43875e-05
10 *959:A1 *160:20 2.06112e-05
11 *959:A1 *161:12 8.6229e-06
12 *959:A1 *170:35 0.000135028
13 *959:A1 *261:14 2.49587e-05
14 *953:B1 *959:A1 1.24368e-05
*RES
1 *953:X *959:A1 36.0286 
*END

*D_NET *93 0.0176669
*CONN
*I *959:A2 I *D sky130_fd_sc_hd__a31o_2
*I *1025:A1 I *D sky130_fd_sc_hd__a31o_1
*I *981:A1 I *D sky130_fd_sc_hd__a31oi_4
*I *954:X O *D sky130_fd_sc_hd__or2b_2
*CAP
1 *959:A2 0.000174866
2 *1025:A1 0
3 *981:A1 0
4 *954:X 0.000467377
5 *93:53 0.0015289
6 *93:37 0.0022467
7 *93:22 0.00160274
8 *93:12 0.00261306
9 *959:A2 *96:42 0.000178847
10 *959:A2 *98:72 1.21258e-05
11 *93:12 *985:C1 0.000163503
12 *93:12 *1132:A 1.29901e-05
13 *93:12 *207:38 0.000652762
14 *93:22 *981:B1 0
15 *93:22 *1008:A1 0
16 *93:22 *1040:A1 0.000189442
17 *93:22 *1124:A1 0.000121926
18 *93:22 *207:38 0.000818744
19 *93:22 *249:33 8.38223e-05
20 *93:22 *252:56 0.000123694
21 *93:22 *255:71 2.84026e-05
22 *93:22 *265:16 3.69047e-06
23 *93:37 *98:42 0.000115446
24 *93:37 *167:32 0.000239779
25 *93:37 *207:38 4.17433e-05
26 *93:37 *235:86 0.000931531
27 *93:37 *267:40 0.000166303
28 *93:53 *984:A 7.84525e-05
29 *93:53 *1003:C 5.60201e-05
30 *93:53 *1011:A2 0.000106505
31 *93:53 *1025:A2 4.97967e-05
32 *93:53 *1025:A3 5.46383e-06
33 *93:53 *1025:B1 4.09607e-05
34 *93:53 *98:42 5.05056e-05
35 *93:53 *155:63 4.00349e-05
36 *93:53 *171:40 0.000206511
37 *93:53 *191:124 4.95797e-05
38 *93:53 *202:10 0.000161597
39 *93:53 *209:59 9.76587e-05
40 *93:53 *248:23 9.59152e-05
41 *93:53 *258:24 9.54798e-06
42 *963:B *93:22 0.00073433
43 *963:B *93:37 0.000431186
44 *983:A *93:37 0.000487601
45 *1107:S *93:37 4.56621e-05
46 *1107:S *93:53 0.000249404
47 *1151:A *93:53 2.4446e-05
48 *1183:RESET_B *93:22 0
49 *31:28 *93:53 0.000565626
50 *49:61 *93:53 9.32955e-05
51 *58:12 *93:22 0.000470341
52 *71:43 *93:53 7.11205e-05
53 *77:43 *93:53 0.000690974
54 *77:55 *93:37 4.13496e-05
55 *88:54 *93:53 0.000194629
*RES
1 *954:X *93:12 27.7643 
2 *93:12 *93:22 43.2143 
3 *93:22 *981:A1 9.3 
4 *93:12 *93:37 21.1964 
5 *93:37 *93:53 43.9107 
6 *93:53 *1025:A1 9.3 
7 *93:37 *959:A2 15.9786 
*END

*D_NET *94 0.0159166
*CONN
*I *956:A I *D sky130_fd_sc_hd__clkbuf_2
*I *955:X O *D sky130_fd_sc_hd__and2b_1
*CAP
1 *956:A 0.00335603
2 *955:X 0.00225493
3 *94:8 0.00561096
4 *956:A *1016:B2 0.0001588
5 *956:A *1041:A0 2.46649e-05
6 *956:A *1103:A1 0.00045855
7 *956:A *1136:A 0.000784385
8 *956:A *95:18 0.000112278
9 *956:A *115:42 1.21068e-05
10 *956:A *120:26 2.1599e-05
11 *956:A *169:16 0
12 *956:A *243:20 1.14338e-05
13 *956:A *265:16 2.6847e-05
14 *94:8 *1136:A 0.000163761
15 *94:8 *180:65 6.74926e-05
16 *94:8 *187:20 0.000127376
17 *1163:D *956:A 0.000232194
18 *1183:RESET_B *956:A 9.59532e-06
19 *28:24 *956:A 0
20 *44:22 *956:A 4.75671e-06
21 *53:14 *94:8 0.0024374
22 *67:8 *94:8 1.79326e-05
23 *80:38 *956:A 2.34861e-05
*RES
1 *955:X *94:8 45.9607 
2 *94:8 *956:A 43.3492 
*END

*D_NET *95 0.0367959
*CONN
*I *957:B I *D sky130_fd_sc_hd__nand2_1
*I *972:A2 I *D sky130_fd_sc_hd__o221a_1
*I *1097:A2 I *D sky130_fd_sc_hd__a221o_1
*I *970:B I *D sky130_fd_sc_hd__nor2_2
*I *956:X O *D sky130_fd_sc_hd__clkbuf_2
*CAP
1 *957:B 0.000698654
2 *972:A2 0.000228377
3 *1097:A2 0.00212132
4 *970:B 0.000767461
5 *956:X 0.00186184
6 *95:73 0.00448866
7 *95:53 0.00420029
8 *95:18 0.00399197
9 *957:B *957:A 5.96846e-05
10 *957:B *1011:B1 7.48927e-06
11 *957:B *131:36 4.14744e-05
12 *957:B *236:100 0.000192447
13 *957:B *243:20 0.000454459
14 *970:B *1016:A2 0.00022319
15 *970:B *134:33 1.90936e-05
16 *970:B *152:22 0.000179435
17 *970:B *169:16 4.19624e-06
18 *970:B *243:20 0.00134452
19 *972:A2 *972:A1 0.000584113
20 *972:A2 *972:B2 0.000178847
21 *972:A2 *972:C1 0.000172484
22 *972:A2 *234:163 3.60587e-05
23 *1097:A2 *972:B1 0.000177291
24 *1097:A2 *972:C1 2.06112e-05
25 *1097:A2 *1056:A1 2.21972e-05
26 *1097:A2 *1093:B1 3.27853e-05
27 *1097:A2 *1097:A1 0.000162387
28 *1097:A2 *1098:B1 0.000139946
29 *1097:A2 *105:8 9.71197e-05
30 *1097:A2 *121:18 9.08889e-06
31 *1097:A2 *128:44 2.27189e-05
32 *1097:A2 *159:18 4.09704e-05
33 *1097:A2 *168:20 0.000101432
34 *1097:A2 *181:28 0.000288272
35 *1097:A2 *200:30 0
36 *1097:A2 *207:18 9.28819e-06
37 *1097:A2 *267:14 8.64454e-05
38 *95:18 *1026:A1 0.000176275
39 *95:18 *1041:A0 2.86184e-05
40 *95:18 *1065:A 1.35933e-05
41 *95:18 *1076:A1 2.96195e-05
42 *95:18 *98:42 0.000131364
43 *95:18 *120:26 0.000430045
44 *95:18 *161:30 8.51461e-05
45 *95:18 *185:20 0.00157036
46 *95:18 *203:24 4.65519e-05
47 *95:18 *204:28 0.000302533
48 *95:18 *210:26 4.04618e-05
49 *95:18 *233:41 5.45989e-05
50 *95:18 *265:16 9.15186e-06
51 *95:53 *115:14 6.2589e-06
52 *95:53 *155:34 0.000355182
53 *95:53 *185:20 4.65519e-05
54 *95:53 *243:20 0.000955462
55 *95:53 *247:18 1.90936e-05
56 *95:73 *935:A 0.000216755
57 *95:73 *1009:A2 1.49122e-05
58 *95:73 *1025:A3 0
59 *95:73 *1066:A 0.000502801
60 *95:73 *1072:B 0.000133404
61 *95:73 *1100:B 0.000166194
62 *95:73 *141:36 0.000290693
63 *95:73 *178:18 0.000215649
64 *95:73 *179:34 0.000383111
65 *95:73 *234:163 0.000103415
66 *95:73 *236:73 0.000717067
67 *95:73 *269:26 0.00073611
68 *956:A *95:18 0.000112278
69 *966:A_N *1097:A2 9.60875e-05
70 *966:B *1097:A2 9.99644e-06
71 *966:C *1097:A2 5.33005e-05
72 *1009:A1 *95:73 4.19624e-06
73 *1178:D *95:73 0.000219289
74 *1185:A *95:18 0.000781244
75 *23:28 *95:18 4.65519e-05
76 *26:28 *957:B 0.000105862
77 *33:16 *95:53 0.000558014
78 *48:36 *957:B 0.000363909
79 *48:36 *970:B 0.000278197
80 *48:36 *95:53 0.000662308
81 *55:14 *957:B 4.81519e-05
82 *59:18 *957:B 9.77118e-05
83 *64:32 *95:73 0.000268047
84 *76:32 *1097:A2 0
85 *83:94 *95:73 0.000159527
86 *84:26 *1097:A2 9.60939e-05
87 *85:20 *95:18 0.00142596
88 *85:63 *1097:A2 0.000375382
89 *89:22 *1097:A2 0.000186165
*RES
1 *956:X *95:18 30.5813 
2 *95:18 *970:B 21.8211 
3 *95:18 *95:53 30.0167 
4 *95:53 *95:73 33.7123 
5 *95:73 *1097:A2 44.3521 
6 *95:73 *972:A2 16.1571 
7 *95:53 *957:B 23.616 
*END

*D_NET *96 0.0181054
*CONN
*I *959:A3 I *D sky130_fd_sc_hd__a31o_2
*I *957:Y O *D sky130_fd_sc_hd__nand2_1
*CAP
1 *959:A3 0
2 *957:Y 0.00169515
3 *96:42 0.00161591
4 *96:28 0.00235932
5 *96:18 0.00243856
6 *96:18 *115:12 0.000980789
7 *96:18 *126:18 9.23209e-05
8 *96:18 *205:24 0
9 *96:18 *234:18 7.14469e-05
10 *96:18 *236:100 7.14469e-05
11 *96:28 *116:98 4.43022e-05
12 *96:28 *151:27 0.000872922
13 *96:28 *209:18 0.000177857
14 *96:28 *255:20 0.000312865
15 *96:42 *948:A 1.00887e-05
16 *96:42 *985:B1 9.21418e-06
17 *96:42 *985:C1 0.000125958
18 *96:42 *1002:A0 9.41642e-05
19 *96:42 *1094:A1 1.90936e-05
20 *96:42 *1173:CLK 2.62102e-05
21 *96:42 *98:42 5.33005e-05
22 *96:42 *98:72 4.43256e-05
23 *96:42 *123:22 0.000104003
24 *96:42 *141:14 0.000140805
25 *96:42 *172:16 0.000514687
26 *96:42 *174:112 0.000345296
27 *96:42 *175:12 2.11419e-05
28 *96:42 *198:54 0.000109247
29 *96:42 *201:116 0.000222666
30 *96:42 *255:71 0.000642664
31 *96:42 *270:10 0.000168233
32 *959:A2 *96:42 0.000178847
33 *991:B1 *96:28 0.000131745
34 *1002:S *96:42 9.99853e-05
35 *1125:A *96:18 5.33005e-05
36 *1130:A *96:28 0.000325853
37 *1130:A *96:42 2.46688e-05
38 *1130:C *96:28 0
39 *1130:C *96:42 0.000104208
40 *1137:A *96:42 0.000303972
41 *1144:S *96:42 0.000120232
42 *1170:D *96:18 0.000206965
43 *1184:D *96:42 0.00016372
44 *26:28 *96:18 8.76694e-05
45 *36:22 *96:28 0.000829115
46 *37:12 *96:42 2.24079e-05
47 *43:36 *96:42 0.00049838
48 *71:43 *96:42 0.000231842
49 *71:47 *96:42 5.33005e-05
50 *87:32 *96:42 0.00128524
*RES
1 *957:Y *96:18 45.5143 
2 *96:18 *96:28 29.1875 
3 *96:28 *96:42 48.5625 
4 *96:42 *959:A3 9.3 
*END

*D_NET *97 0.017785
*CONN
*I *980:A I *D sky130_fd_sc_hd__or2_2
*I *1142:C I *D sky130_fd_sc_hd__and3_1
*I *959:B1 I *D sky130_fd_sc_hd__a31o_2
*I *958:Y O *D sky130_fd_sc_hd__nor2_1
*CAP
1 *980:A 0.000646055
2 *1142:C 0.000777585
3 *959:B1 9.87581e-05
4 *958:Y 0
5 *97:43 0.00266285
6 *97:22 0.00198402
7 *97:20 0.00188283
8 *97:4 0.00252889
9 *959:B1 *965:A 0.000187174
10 *959:B1 *1055:A2 6.19932e-05
11 *980:A *150:60 9.75679e-05
12 *980:A *185:63 0
13 *980:A *188:14 9.58689e-05
14 *980:A *224:12 0.000220029
15 *97:20 *982:A 0.00043313
16 *97:20 *1078:A3 2.8069e-05
17 *97:20 *1097:B2 9.85313e-05
18 *97:20 *1097:C1 0.000222244
19 *97:20 *1148:A0 3.84377e-05
20 *97:20 *98:79 0.000129739
21 *97:20 *122:62 0.00049015
22 *97:20 *168:20 0.000725919
23 *97:20 *207:18 3.72901e-05
24 *97:20 *256:34 0.000255612
25 *97:20 *267:40 4.38942e-05
26 *97:43 *965:A 0.00017773
27 *97:43 *1015:A 1.76569e-05
28 *97:43 *1055:A2 0.000166827
29 *97:43 *1075:A2 7.44888e-05
30 *97:43 *1089:A0 2.11165e-05
31 *97:43 *167:32 0.000110151
32 *97:43 *174:57 0.000183078
33 *97:43 *270:10 7.58841e-05
34 *953:C1 *97:20 0
35 *958:A *980:A 1.46231e-05
36 *959:A1 *959:B1 5.20232e-05
37 *1142:A *1142:C 0.000517768
38 *43:36 *1142:C 0.000363371
39 *74:10 *97:43 0.00214598
40 *76:32 *97:20 3.47641e-06
41 *82:154 *980:A 2.84026e-05
42 *82:162 *97:20 7.6644e-05
43 *87:32 *97:20 9.14714e-06
*RES
1 *958:Y *97:4 9.3 
2 *97:4 *97:20 46.1607 
3 *97:20 *97:22 4.5 
4 *97:22 *959:B1 16.3536 
5 *97:22 *97:43 43.2143 
6 *97:43 *1142:C 19.9875 
7 *97:4 *980:A 27.5679 
*END

*D_NET *98 0.0199236
*CONN
*I *1042:A1 I *D sky130_fd_sc_hd__a31o_1
*I *982:A I *D sky130_fd_sc_hd__xnor2_2
*I *1058:A I *D sky130_fd_sc_hd__and4_1
*I *960:A I *D sky130_fd_sc_hd__buf_1
*I *1028:A1 I *D sky130_fd_sc_hd__a211o_1
*I *959:X O *D sky130_fd_sc_hd__a31o_2
*CAP
1 *1042:A1 0.000291395
2 *982:A 0.000385814
3 *1058:A 0
4 *960:A 0
5 *1028:A1 0.00048952
6 *959:X 0
7 *98:79 0.000852174
8 *98:72 0.000331915
9 *98:42 0.0030034
10 *98:4 0.00267083
11 *982:A *977:A_N 0.000408621
12 *982:A *982:B 0.000440481
13 *982:A *1098:B1 5.25192e-06
14 *982:A *197:16 0.000124616
15 *982:A *201:80 1.98839e-05
16 *982:A *256:34 0.000178425
17 *982:A *263:18 0.000140243
18 *1028:A1 *1028:B1 2.10812e-05
19 *1028:A1 *1028:C1 5.72192e-05
20 *1028:A1 *1067:A 0.000563001
21 *1028:A1 *1079:A1 0
22 *1028:A1 *1079:C1 0.000259749
23 *1028:A1 *115:42 0.000696471
24 *1028:A1 *120:26 6.09762e-05
25 *1028:A1 *120:39 5.50052e-05
26 *1028:A1 *155:143 3.63775e-05
27 *1028:A1 *162:28 3.69047e-06
28 *1028:A1 *212:32 9.25711e-05
29 *1028:A1 *259:50 7.15331e-05
30 *1042:A1 *1031:B 8.6229e-06
31 *1042:A1 *1058:D 0.000105289
32 *1042:A1 *1078:A3 0.000127392
33 *1042:A1 *1095:A2 0
34 *1042:A1 *106:57 5.92209e-05
35 *1042:A1 *120:88 9.83442e-05
36 *1042:A1 *256:22 2.83627e-05
37 *98:42 *984:A 0.000203705
38 *98:42 *1026:A0 9.41642e-05
39 *98:42 *1079:C1 0.000124245
40 *98:42 *1124:A1 3.9216e-05
41 *98:42 *110:53 0.000434519
42 *98:42 *122:37 7.54115e-05
43 *98:42 *128:44 9.38814e-05
44 *98:42 *162:28 1.21258e-05
45 *98:42 *167:10 8.61953e-05
46 *98:42 *167:32 4.74064e-05
47 *98:42 *200:30 0.00066882
48 *98:42 *204:28 0.000127359
49 *98:42 *226:30 0.0015666
50 *98:42 *270:10 8.40344e-05
51 *98:72 *1058:C 0.000152823
52 *98:79 *1058:B 5.33005e-05
53 *98:79 *1058:C 3.97677e-05
54 *98:79 *1058:D 4.60153e-05
55 *98:79 *1097:B2 9.77264e-06
56 *98:79 *197:16 0.000268161
57 *959:A2 *98:72 1.21258e-05
58 *1107:S *98:42 2.58474e-05
59 *46:20 *98:42 0.00101787
60 *71:43 *98:42 1.73088e-05
61 *76:32 *98:42 2.28499e-05
62 *76:32 *98:72 0.00044898
63 *76:32 *98:79 7.95355e-05
64 *85:20 *98:42 0.00075326
65 *85:63 *98:42 0.000493987
66 *87:32 *98:42 0.000179037
67 *93:37 *98:42 0.000115446
68 *93:53 *98:42 5.05056e-05
69 *95:18 *98:42 0.000131364
70 *96:42 *98:42 5.33005e-05
71 *96:42 *98:72 4.43256e-05
72 *97:20 *982:A 0.00043313
73 *97:20 *98:79 0.000129739
*RES
1 *959:X *98:4 9.3 
2 *98:4 *98:42 37.6888 
3 *98:42 *1028:A1 32.2107 
4 *98:42 *960:A 9.3 
5 *98:4 *98:72 4.64286 
6 *98:72 *1058:A 9.3 
7 *98:72 *98:79 5.05357 
8 *98:79 *982:A 29.9071 
9 *98:79 *1042:A1 23.925 
*END

*D_NET *99 0.015646
*CONN
*I *961:A I *D sky130_fd_sc_hd__dlymetal6s2s_1
*I *1031:A I *D sky130_fd_sc_hd__or2_1
*I *1027:A I *D sky130_fd_sc_hd__and2_1
*I *960:X O *D sky130_fd_sc_hd__buf_1
*CAP
1 *961:A 0.000375396
2 *1031:A 0.000371307
3 *1027:A 0.00140221
4 *960:X 0.00077691
5 *99:43 0.00121644
6 *99:8 0.00264886
7 *961:A *1075:A1 0.000681304
8 *961:A *1158:CLK 0.000728228
9 *961:A *104:10 2.59355e-05
10 *1027:A *1027:B 0.000865333
11 *1027:A *1085:A0 0.000256242
12 *1027:A *1085:S 2.29194e-05
13 *1027:A *120:76 0.000145023
14 *1027:A *126:10 1.90936e-05
15 *1027:A *126:18 0.00132299
16 *1027:A *174:83 2.4102e-05
17 *1027:A *201:33 0.000121745
18 *1027:A *205:24 0
19 *1027:A *234:112 0.000151549
20 *1027:A *258:22 9.72966e-05
21 *1031:A *1049:A 8.59075e-05
22 *1031:A *161:30 0.000454941
23 *1031:A *161:68 0.000207724
24 *1031:A *170:8 5.33005e-05
25 *1031:A *256:22 0.000324601
26 *99:8 *1026:A0 0.000476246
27 *99:8 *236:39 0.000591765
28 *99:43 *1075:A1 0.000380336
29 *99:43 *1085:A0 0.000437622
30 *99:43 *1158:CLK 9.54798e-06
31 *99:43 *129:26 1.0751e-05
32 *99:43 *158:20 2.06178e-05
33 *99:43 *202:14 9.41642e-05
34 *99:43 *234:112 0.000696351
35 *99:43 *234:121 0.000183689
36 *99:43 *237:45 9.58181e-05
37 *1159:D *1031:A 8.12221e-05
38 *33:16 *1027:A 0.000164097
39 *49:61 *1027:A 2.43656e-05
*RES
1 *960:X *99:8 26.6571 
2 *99:8 *1027:A 45.7107 
3 *99:8 *99:43 22.0357 
4 *99:43 *1031:A 24.1929 
5 *99:43 *961:A 23.8714 
*END

*D_NET *100 0.0274032
*CONN
*I *962:A I *D sky130_fd_sc_hd__buf_1
*I *1050:S I *D sky130_fd_sc_hd__mux2_1
*I *995:A I *D sky130_fd_sc_hd__buf_1
*I *961:X O *D sky130_fd_sc_hd__dlymetal6s2s_1
*CAP
1 *962:A 0
2 *1050:S 0.000585823
3 *995:A 0.00114987
4 *961:X 0.00115641
5 *100:65 0.00259252
6 *100:32 0.00441757
7 *100:26 0.00241741
8 *995:A *1034:A2 0.00124139
9 *995:A *1103:A1 6.46173e-05
10 *995:A *1124:A0 0.0001133
11 *995:A *104:22 0.000194681
12 *995:A *115:42 0.00051923
13 *995:A *130:78 2.47373e-05
14 *1050:S *967:A 1.31545e-05
15 *1050:S *988:A 5.20232e-05
16 *1050:S *1050:A0 8.37327e-05
17 *1050:S *1050:A1 5.33005e-05
18 *1050:S *1105:A 0.000133458
19 *1050:S *118:59 0.000225811
20 *1050:S *135:8 9.41642e-05
21 *1050:S *180:8 3.53533e-05
22 *1050:S *212:60 1.90936e-05
23 *1050:S *242:24 0.000394582
24 *100:26 *990:A 0
25 *100:26 *1035:A1_N 6.14836e-06
26 *100:26 *1048:A 8.92205e-05
27 *100:26 *1061:A1 5.38242e-05
28 *100:26 *1140:A 4.37451e-05
29 *100:26 *104:10 0.000132388
30 *100:26 *106:57 0.000720717
31 *100:26 *110:53 0.000104976
32 *100:26 *116:82 3.50637e-05
33 *100:26 *129:26 0.000194053
34 *100:32 *116:82 0.000765891
35 *100:32 *154:18 0.00144805
36 *100:65 *1003:A_N 1.97712e-05
37 *100:65 *1117:D_N 1.47658e-06
38 *100:65 *115:42 0.000654349
39 *100:65 *130:78 0.000110186
40 *100:65 *141:36 1.67662e-05
41 *100:65 *151:27 0.000231947
42 *100:65 *157:18 3.98934e-05
43 *100:65 *197:46 0.000127441
44 *100:65 *236:73 2.35215e-05
45 *100:65 *257:49 4.98422e-05
46 seg[2] *1050:S 1.34436e-05
47 *937:A *100:65 2.48858e-05
48 *1137:A *100:26 1.61405e-05
49 *1177:D *100:65 0.00158661
50 *21:34 *100:65 0.000194617
51 *34:28 *100:26 8.85276e-05
52 *43:26 *100:26 4.06461e-05
53 *43:26 *100:65 0.000271596
54 *43:36 *100:26 9.65768e-05
55 *46:20 *100:26 0
56 *48:36 *1050:S 2.06112e-05
57 *54:12 *100:26 0.000133611
58 *57:36 *100:65 0.000735062
59 *57:50 *995:A 0.00124414
60 *57:50 *100:65 0.000520313
61 *57:70 *995:A 0.000750677
62 *64:68 *100:65 0.000127441
63 *81:72 *100:65 0.000110967
64 *81:92 *100:65 0.000114522
65 *82:30 *1050:S 6.94952e-05
66 *82:54 *100:65 0.000195577
67 *84:130 *1050:S 0.000302307
68 *89:48 *1050:S 0.000137561
69 *90:24 *100:65 0.000156399
*RES
1 *961:X *100:26 46.9633 
2 *100:26 *100:32 10.1695 
3 *100:32 *995:A 23.3135 
4 *100:32 *100:65 25.1327 
5 *100:65 *1050:S 33.1393 
6 *100:65 *962:A 9.3 
*END

*D_NET *101 0.0230088
*CONN
*I *974:A I *D sky130_fd_sc_hd__nor2_2
*I *1023:S I *D sky130_fd_sc_hd__mux2_1
*I *962:X O *D sky130_fd_sc_hd__buf_1
*CAP
1 *974:A 0
2 *1023:S 0
3 *962:X 0.000224196
4 *101:26 0.00484669
5 *101:8 0.00507089
6 *101:8 *143:16 0.000512166
7 *101:8 *197:46 0.000525682
8 *101:26 *992:A1 2.07671e-05
9 *101:26 *1000:B1 0.00211729
10 *101:26 *1040:A0 0.00103834
11 *101:26 *1103:A0 4.65519e-05
12 *101:26 *1103:A1 0.000263166
13 *101:26 *1124:A1 1.25167e-05
14 *101:26 *113:16 0.000267374
15 *101:26 *137:20 0.000925876
16 *101:26 *143:16 0.000152772
17 *101:26 *173:38 0.000967299
18 *101:26 *197:46 0.000155561
19 *101:26 *212:60 0
20 *101:26 *229:14 0.000168933
21 *101:26 *239:8 0.000275858
22 *101:26 *263:44 9.62329e-05
23 *101:26 *269:26 0.000218955
24 *101:26 *271:20 0.000126606
25 *1190:A *101:26 5.33005e-05
26 *32:34 *101:26 0.00178529
27 *44:22 *101:26 0.000219564
28 *64:68 *101:26 0.00226613
29 *64:88 *101:26 0.000328399
30 *70:32 *101:26 0.000322373
31 *80:38 *101:26 0
*RES
1 *962:X *101:8 20.9071 
2 *101:8 *101:26 47.8265 
3 *101:26 *1023:S 9.3 
4 *101:8 *974:A 13.8 
*END

*D_NET *102 0.00676484
*CONN
*I *964:A I *D sky130_fd_sc_hd__buf_1
*I *963:X O *D sky130_fd_sc_hd__and3b_1
*CAP
1 *964:A 0.000362103
2 *963:X 0.00135519
3 *102:16 0.0017173
4 *964:A *985:B1 9.99111e-05
5 *964:A *985:C1 5.46824e-05
6 *964:A *124:26 1.58163e-05
7 *964:A *258:22 0.00101591
8 *102:16 *1026:A1 0.000105469
9 *102:16 *1180:CLK 0
10 *102:16 *104:14 1.92789e-05
11 *102:16 *106:95 0.000615943
12 *102:16 *115:42 5.89558e-05
13 *102:16 *132:12 3.28534e-05
14 *102:16 *136:24 0.000199331
15 *102:16 *155:143 6.35224e-05
16 *102:16 *160:20 1.90936e-05
17 *102:16 *167:10 0
18 *102:16 *185:55 0
19 *102:16 *212:32 8.19176e-05
20 *102:16 *233:143 0
21 *102:16 *233:176 0
22 *102:16 *236:33 2.21972e-05
23 *102:16 *237:18 0.000150328
24 *102:16 *255:71 7.62712e-05
25 *963:B *102:16 3.41261e-05
26 *1130:A *964:A 6.10295e-05
27 *1130:C *964:A 0.00030814
28 *69:14 *102:16 0.000295467
*RES
1 *963:X *102:16 45.425 
2 *102:16 *964:A 19.7107 
*END

*D_NET *103 0.00909097
*CONN
*I *965:A I *D sky130_fd_sc_hd__clkbuf_2
*I *1053:A I *D sky130_fd_sc_hd__or2_1
*I *964:X O *D sky130_fd_sc_hd__buf_1
*CAP
1 *965:A 0.00108596
2 *1053:A 0
3 *964:X 0.000858468
4 *103:32 0.00194443
5 *965:A *1015:A 0.000363073
6 *965:A *1032:B1 1.8791e-05
7 *965:A *1097:B2 0.000215809
8 *965:A *104:10 2.42516e-05
9 *965:A *119:46 0.000387262
10 *965:A *120:76 2.06178e-05
11 *965:A *123:22 3.29715e-05
12 *965:A *145:75 0.000573959
13 *965:A *148:8 1.10868e-05
14 *965:A *161:12 9.45051e-05
15 *965:A *167:32 0.000260152
16 *965:A *171:20 0.000228038
17 *965:A *174:73 1.71401e-05
18 *965:A *192:20 0.000175162
19 *965:A *261:14 2.30116e-06
20 *103:32 *987:A1 9.66977e-05
21 *103:32 *987:A2 2.28598e-05
22 *103:32 *1026:S 0.000299956
23 *103:32 *121:85 4.20699e-05
24 *103:32 *174:112 6.94952e-05
25 *103:32 *252:48 0.000106801
26 *103:32 *258:22 5.65955e-05
27 *103:32 *270:30 7.3475e-05
28 *952:D *965:A 0.000344413
29 *959:A1 *965:A 8.86584e-05
30 *959:B1 *965:A 0.000187174
31 *1185:A *103:32 1.90936e-05
32 *32:64 *103:32 8.20494e-05
33 *49:61 *965:A 2.12005e-05
34 *49:61 *103:32 0.00013833
35 *64:32 *103:32 0.00015294
36 *90:42 *965:A 0.000430315
37 *90:42 *103:32 3.50409e-05
38 *90:70 *103:32 0.00033209
39 *97:43 *965:A 0.00017773
*RES
1 *964:X *103:32 44.675 
2 *103:32 *1053:A 9.3 
3 *103:32 *965:A 45.4964 
*END

*D_NET *104 0.0154579
*CONN
*I *971:A I *D sky130_fd_sc_hd__nor2_2
*I *968:A I *D sky130_fd_sc_hd__or2_1
*I *970:A I *D sky130_fd_sc_hd__nor2_2
*I *965:X O *D sky130_fd_sc_hd__clkbuf_2
*CAP
1 *971:A 0
2 *968:A 0.000270048
3 *970:A 0
4 *965:X 0.00217741
5 *104:22 0.00188229
6 *104:14 0.00233675
7 *104:10 0.00236182
8 *968:A *968:B 9.41642e-05
9 *968:A *1014:B 0.000139344
10 *968:A *1061:B1 4.75203e-05
11 *968:A *130:39 0
12 *968:A *271:43 6.92966e-06
13 *104:10 *1158:CLK 6.595e-05
14 *104:10 *106:57 2.58706e-05
15 *104:10 *110:6 0.000204641
16 *104:10 *110:53 0.00036505
17 *104:10 *167:32 1.98839e-05
18 *104:10 *263:18 0.000178425
19 *104:14 *1061:A1 0.000360998
20 *104:22 *1023:A1 3.5626e-05
21 *104:22 *1034:A2 2.45056e-05
22 *104:22 *1067:B 0.000268041
23 *104:22 *1079:B1 0.000133652
24 *104:22 *1079:C1 1.31516e-05
25 *104:22 *1103:A1 0.00015646
26 *104:22 *1124:A0 6.66336e-05
27 *104:22 *130:39 0
28 *104:22 *152:22 0.000104876
29 *104:22 *161:46 0.000141384
30 *104:22 *209:18 0.00026353
31 *104:22 *210:26 6.35864e-05
32 *104:22 *222:30 8.32904e-05
33 *104:22 *227:18 0.000408692
34 *104:22 *236:12 0.000325498
35 *104:22 *238:70 0.000180889
36 *104:22 *252:56 0
37 *952:D *104:10 5.69819e-05
38 *961:A *104:10 2.59355e-05
39 *963:C *104:10 7.91733e-05
40 *963:C *104:14 0.000141941
41 *965:A *104:10 2.42516e-05
42 *995:A *104:22 0.000194681
43 *1112:A *104:22 3.1478e-05
44 *1138:B *104:22 0.000138881
45 *1161:D *104:22 0.000485012
46 *1174:D *104:22 1.59215e-05
47 *21:34 *104:10 7.46415e-05
48 *29:20 *104:22 7.36733e-05
49 *57:70 *104:22 0.000696656
50 *64:88 *104:22 0.000284239
51 *82:185 *104:14 0.000175892
52 *100:26 *104:10 0.000132388
53 *102:16 *104:14 1.92789e-05
*RES
1 *965:X *104:10 36.4607 
2 *104:10 *104:14 9.55357 
3 *104:14 *104:22 48.9286 
4 *104:22 *970:A 9.3 
5 *104:14 *968:A 18.3357 
6 *104:10 *971:A 9.3 
*END

*D_NET *105 0.00894672
*CONN
*I *967:A I *D sky130_fd_sc_hd__buf_2
*I *966:X O *D sky130_fd_sc_hd__and3b_1
*CAP
1 *967:A 0.00107204
2 *966:X 0.00152283
3 *105:8 0.00259487
4 *967:A *988:A 1.68854e-05
5 *967:A *1005:B 0.000198325
6 *967:A *1050:A0 0
7 *967:A *1105:C 0
8 *967:A *128:22 0.000959133
9 *967:A *131:36 2.02282e-05
10 *967:A *135:8 0.000134501
11 *967:A *150:60 0.000364076
12 *967:A *189:34 2.59355e-05
13 *967:A *195:12 0.000277656
14 *967:A *224:12 0.000114999
15 *967:A *260:36 0.000394875
16 *105:8 *128:44 0.00033727
17 seg[2] *967:A 4.31969e-05
18 *966:B *105:8 2.14815e-05
19 *1050:S *967:A 1.31545e-05
20 *1097:A2 *105:8 9.71197e-05
21 *1182:RESET_B *967:A 0.000500349
22 *48:36 *967:A 4.99283e-06
23 *76:32 *967:A 0.000226852
24 *82:162 *105:8 5.94896e-06
*RES
1 *966:X *105:8 31.5857 
2 *105:8 *967:A 45.8714 
*END

*D_NET *106 0.0415632
*CONN
*I *1042:B1 I *D sky130_fd_sc_hd__a31o_1
*I *971:B I *D sky130_fd_sc_hd__nor2_2
*I *987:A1 I *D sky130_fd_sc_hd__o21a_1
*I *1028:C1 I *D sky130_fd_sc_hd__a211o_1
*I *1094:B1 I *D sky130_fd_sc_hd__a21oi_1
*I *968:B I *D sky130_fd_sc_hd__or2_1
*I *988:A I *D sky130_fd_sc_hd__or3_2
*I *967:X O *D sky130_fd_sc_hd__buf_2
*CAP
1 *1042:B1 0
2 *971:B 0
3 *987:A1 0.000401942
4 *1028:C1 0.000467525
5 *1094:B1 0.000174981
6 *968:B 3.97594e-05
7 *988:A 0.000541968
8 *967:X 0.000260942
9 *106:95 0.00146342
10 *106:80 0.00127169
11 *106:65 0.000806246
12 *106:57 0.00189019
13 *106:37 0.00461487
14 *106:6 0.00379131
15 *968:B *271:43 2.79421e-05
16 *987:A1 *987:A2 0.00013921
17 *987:A1 *174:112 0.00066295
18 *987:A1 *230:61 0.000353271
19 *987:A1 *270:30 0.000774323
20 *988:A *180:39 0.000509582
21 *988:A *212:60 9.289e-05
22 *988:A *260:36 8.10806e-05
23 *988:A *260:42 0.000449698
24 *1028:C1 *1028:B1 2.88667e-05
25 *1028:C1 *1067:A 0.00036404
26 *1028:C1 *120:26 4.00349e-05
27 *1028:C1 *161:46 1.77927e-05
28 *1028:C1 *205:22 0.000269194
29 *1028:C1 *230:61 0.000257619
30 *1028:C1 *259:50 0.000117132
31 *1094:B1 *1094:A1 0.000949913
32 *1094:B1 *198:54 0.000949872
33 *106:6 *135:8 0.000346132
34 *106:37 *1031:B 4.77237e-05
35 *106:37 *1045:A 0.00148094
36 *106:37 *1045:B 1.59498e-05
37 *106:37 *1094:A1 2.91117e-05
38 *106:37 *1095:A2 0
39 *106:37 *1100:A_N 0.000695098
40 *106:37 *108:49 0.000452322
41 *106:37 *119:30 0.000442658
42 *106:37 *135:8 0.000367773
43 *106:37 *180:14 0.000200151
44 *106:37 *181:28 4.8817e-05
45 *106:37 *184:14 0.00160239
46 *106:37 *186:28 2.37465e-05
47 *106:37 *221:12 0.000642856
48 *106:37 *245:14 0
49 *106:57 *1021:B1 0.00125879
50 *106:57 *1031:B 8.28647e-05
51 *106:57 *1061:A1 0.000205616
52 *106:57 *1078:A3 4.15526e-05
53 *106:57 *108:49 0.000416936
54 *106:57 *110:6 0.000393091
55 *106:57 *110:53 0.000727344
56 *106:57 *120:88 1.52217e-05
57 *106:57 *128:44 0
58 *106:57 *256:22 0.000139287
59 *106:65 *185:55 0
60 *106:65 *271:43 0.000367628
61 *106:80 *1079:A2 0.00075588
62 *106:80 *1180:CLK 5.64237e-05
63 *106:80 *130:39 3.23282e-05
64 *106:80 *161:30 0.000255606
65 *106:80 *271:43 1.02301e-05
66 *106:95 *950:A 3.57933e-05
67 *106:95 *1094:A1 0.00034718
68 *106:95 *155:143 0.000268646
69 *106:95 *198:54 0.00033565
70 *106:95 *236:33 2.06112e-05
71 *106:95 *237:18 0.000152474
72 *106:95 *252:48 0.000186842
73 an[3] *106:37 6.10068e-05
74 seg[3] *988:A 2.22043e-05
75 *963:C *106:57 0.000855306
76 *967:A *988:A 1.68854e-05
77 *968:A *968:B 9.41642e-05
78 *1008:A2 *106:57 6.25475e-05
79 *1028:A1 *1028:C1 5.72192e-05
80 *1037:A1 *988:A 0.000150625
81 *1042:A1 *106:57 5.92209e-05
82 *1050:S *988:A 5.20232e-05
83 *1114:A *1028:C1 0.000163043
84 *1142:A *106:80 0.000817899
85 *26:28 *988:A 0.00035401
86 *37:12 *106:95 2.06279e-05
87 *39:28 *106:37 0.000394777
88 *39:28 *106:57 0.00168361
89 *58:12 *106:80 0.00026109
90 *58:28 *106:65 0.000184965
91 *76:32 *106:37 0.00012777
92 *82:185 *106:65 0
93 *85:63 *106:57 0.000138849
94 *88:12 *106:57 0.000126711
95 *89:22 *106:95 8.75325e-05
96 *100:26 *106:57 0.000720717
97 *102:16 *106:95 0.000615943
98 *103:32 *987:A1 9.66977e-05
99 *104:10 *106:57 2.58706e-05
*RES
1 *967:X *106:6 12.7107 
2 *106:6 *988:A 36.0321 
3 *106:6 *106:37 47.2347 
4 *106:37 *106:57 42.874 
5 *106:57 *106:65 15.0714 
6 *106:65 *968:B 10.2464 
7 *106:65 *106:80 24.7321 
8 *106:80 *1094:B1 18.4607 
9 *106:80 *106:95 24.6786 
10 *106:95 *1028:C1 29.7286 
11 *106:95 *987:A1 21.4786 
12 *106:57 *971:B 9.3 
13 *106:37 *1042:B1 9.3 
*END

*D_NET *107 0.00598473
*CONN
*I *969:A I *D sky130_fd_sc_hd__clkbuf_2
*I *968:X O *D sky130_fd_sc_hd__or2_1
*CAP
1 *969:A 0
2 *968:X 0.00190217
3 *107:12 0.00190217
4 *107:12 *122:37 3.21438e-05
5 *107:12 *146:26 4.57244e-05
6 *107:12 *201:100 0.00154954
7 *107:12 *211:18 0.000108068
8 *107:12 *271:43 0.000444925
*RES
1 *968:X *107:12 45.1929 
2 *107:12 *969:A 9.3 
*END

*D_NET *108 0.0294945
*CONN
*I *1097:C1 I *D sky130_fd_sc_hd__a221o_1
*I *973:A2 I *D sky130_fd_sc_hd__a21o_1
*I *986:A2 I *D sky130_fd_sc_hd__a21o_1
*I *996:A I *D sky130_fd_sc_hd__buf_1
*I *1021:B1 I *D sky130_fd_sc_hd__a21oi_1
*I *969:X O *D sky130_fd_sc_hd__clkbuf_2
*CAP
1 *1097:C1 0.000137857
2 *973:A2 5.87324e-05
3 *986:A2 0.000193604
4 *996:A 6.37907e-05
5 *1021:B1 0.00296558
6 *969:X 0.000598049
7 *108:65 0.00112223
8 *108:49 0.00255467
9 *108:18 0.00488332
10 *108:10 0.00102255
11 *973:A2 *973:B1 1.93007e-05
12 *973:A2 *1005:C 5.65955e-05
13 *986:A2 *986:B1 4.96113e-05
14 *986:A2 *125:32 9.83388e-05
15 *986:A2 *176:12 3.45395e-05
16 *996:A *135:8 2.59355e-05
17 *1021:B1 *109:40 7.76075e-06
18 *1021:B1 *109:50 0.000168361
19 *1021:B1 *173:38 0.000116315
20 *1021:B1 *222:30 0.00141386
21 *1021:B1 *238:12 0.000139414
22 *1097:C1 *1097:B2 5.33005e-05
23 *1097:C1 *122:62 4.35597e-05
24 *108:10 *1055:B1 0.000313493
25 *108:18 *1055:A2 2.95076e-06
26 *108:18 *1055:B1 3.69573e-05
27 *108:18 *1058:B 0.000199827
28 *108:18 *1097:B2 0.00021386
29 *108:18 *120:88 0.000107671
30 *108:18 *170:35 8.23119e-05
31 *108:18 *261:14 1.91937e-05
32 *108:49 *1093:B1 5.17168e-05
33 *108:49 *221:12 2.06178e-05
34 *108:49 *222:30 0.000195174
35 *108:49 *256:34 0
36 *108:49 *263:44 0.000451113
37 *108:65 *973:B1 0.000204689
38 *108:65 *1176:CLK 4.86376e-05
39 *108:65 *135:8 6.57032e-05
40 *108:65 *193:10 2.2502e-05
41 *108:65 *207:18 0.000124782
42 *108:65 *212:60 4.21517e-05
43 *108:65 *223:18 2.10838e-05
44 *108:65 *223:38 0.000745219
45 *936:A *996:A 6.57032e-05
46 *936:A *108:65 6.22482e-05
47 *953:C1 *108:10 0.000357541
48 *953:C1 *108:18 0.000131096
49 *953:C1 *108:49 0.000187984
50 *958:B *108:49 4.04359e-05
51 *1137:A *1021:B1 0
52 *1142:A *1021:B1 0.000392316
53 *39:28 *1021:B1 0.00215907
54 *39:28 *108:49 0.00182782
55 *42:10 *1021:B1 0.000137834
56 *57:22 *108:49 0
57 *57:22 *108:65 0.000305191
58 *57:36 *108:65 0.000617376
59 *64:68 *986:A2 0.000372683
60 *65:8 *108:10 0.000394859
61 *76:32 *108:49 9.57184e-05
62 *78:6 *996:A 8.43535e-06
63 *78:16 *996:A 1.58163e-05
64 *81:28 *1021:B1 0.000222595
65 *81:72 *108:49 4.88232e-05
66 *82:18 *986:A2 0.000299638
67 *82:18 *108:65 3.57475e-05
68 *83:8 *108:10 1.60861e-05
69 *83:10 *108:10 0.000127842
70 *84:14 *108:10 0.000424423
71 *97:20 *1097:C1 0.000222244
72 *106:37 *108:49 0.000452322
73 *106:57 *1021:B1 0.00125879
74 *106:57 *108:49 0.000416936
*RES
1 *969:X *108:10 27.7643 
2 *108:10 *108:18 10.4189 
3 *108:18 *1021:B1 26.9633 
4 *108:18 *108:49 13.2717 
5 *108:49 *108:65 25.5536 
6 *108:65 *996:A 10.6571 
7 *108:65 *986:A2 24.2286 
8 *108:49 *973:A2 14.8714 
9 *108:10 *1097:C1 16.8 
*END

*D_NET *109 0.0315061
*CONN
*I *1021:A2 I *D sky130_fd_sc_hd__a21oi_1
*I *1097:B1 I *D sky130_fd_sc_hd__a221o_1
*I *972:B1 I *D sky130_fd_sc_hd__o221a_1
*I *970:Y O *D sky130_fd_sc_hd__nor2_2
*CAP
1 *1021:A2 0.000258236
2 *1097:B1 0.000892362
3 *972:B1 0.00143244
4 *970:Y 0.000659315
5 *109:50 0.00764255
6 *109:40 0.00636945
7 *109:26 0.00145278
8 *972:B1 *945:A1 6.57603e-05
9 *972:B1 *972:B2 5.49489e-05
10 *972:B1 *1128:A0 0.000174367
11 *972:B1 *193:10 6.57603e-05
12 *972:B1 *204:28 0.000581837
13 *972:B1 *234:163 5.33005e-05
14 *972:B1 *242:24 0.000195323
15 *972:B1 *263:44 0.000723384
16 *1021:A2 *1021:A1 7.95355e-05
17 *1021:A2 *1142:B 1.90936e-05
18 *1021:A2 *160:20 0.000287478
19 *1097:B1 *1020:A 1.42744e-05
20 *1097:B1 *1078:A3 5.19842e-06
21 *1097:B1 *1097:A1 5.49103e-05
22 *1097:B1 *1097:B2 5.09596e-06
23 *1097:B1 *168:20 0.000306142
24 *1097:B1 *200:30 0
25 *109:26 *1019:B 0.000981681
26 *109:26 *1076:A1 0.000204215
27 *109:26 *1076:A3 9.24685e-05
28 *109:26 *1076:B1 5.49544e-05
29 *109:26 *1103:A1 2.02794e-05
30 *109:26 *1124:A1 4.47273e-05
31 *109:26 *139:18 0.000248033
32 *109:26 *152:22 7.7943e-05
33 *109:26 *209:18 0.000223476
34 *109:26 *233:51 0.00015078
35 *109:26 *239:22 0.000361689
36 *109:26 *250:29 8.78754e-05
37 *109:40 *1103:A0 0.000370966
38 *109:40 *1124:A1 0.000502425
39 *109:40 *1142:B 1.32023e-05
40 *109:40 *153:18 0.0010782
41 *109:40 *173:38 4.926e-05
42 *1021:B1 *109:40 7.76075e-06
43 *1021:B1 *109:50 0.000168361
44 *1097:A2 *972:B1 0.000177291
45 *1137:A *109:50 0.000274663
46 *1142:A *109:50 0.000113942
47 *1145:A *109:40 0.000389234
48 *1184:RESET_B *1021:A2 0.000474125
49 *28:16 *109:26 0.000102507
50 *65:28 *972:B1 6.26523e-05
51 *78:84 *972:B1 3.53463e-05
52 *78:84 *1097:B1 4.16953e-05
53 *80:38 *1097:B1 2.82693e-05
54 *80:38 *109:50 0.00270155
55 *81:72 *972:B1 0.000711795
56 *85:63 *1097:B1 5.01285e-05
57 *89:22 *972:B1 0.00021109
*RES
1 *970:Y *109:26 48.3893 
2 *109:26 *109:40 30.1504 
3 *109:40 *109:50 6.20155 
4 *109:50 *972:B1 26.0331 
5 *109:50 *1097:B1 23.9901 
6 *109:40 *1021:A2 24.1832 
*END

*D_NET *110 0.0263805
*CONN
*I *972:C1 I *D sky130_fd_sc_hd__o221a_1
*I *1096:A I *D sky130_fd_sc_hd__buf_1
*I *1041:S I *D sky130_fd_sc_hd__mux2_1
*I *1022:A2_N I *D sky130_fd_sc_hd__a2bb2o_2
*I *985:C1 I *D sky130_fd_sc_hd__o221a_1
*I *971:Y O *D sky130_fd_sc_hd__nor2_2
*CAP
1 *972:C1 0.000203513
2 *1096:A 0.000609068
3 *1041:S 0.000284688
4 *1022:A2_N 3.59775e-05
5 *985:C1 0.00121633
6 *971:Y 0.000102327
7 *110:78 0.00128389
8 *110:70 0.00234234
9 *110:53 0.00279189
10 *110:6 0.00232588
11 *972:C1 *972:B2 5.33005e-05
12 *972:C1 *1056:A1 1.10978e-05
13 *972:C1 *234:163 0.000386121
14 *985:C1 *948:A 2.70549e-05
15 *985:C1 *985:B1 7.26721e-05
16 *985:C1 *1071:A 0.000934786
17 *985:C1 *1071:B_N 0.000361972
18 *985:C1 *1124:A1 0.000135775
19 *985:C1 *1132:A 7.05967e-05
20 *985:C1 *1171:CLK 4.8629e-05
21 *985:C1 *123:22 0.000196091
22 *985:C1 *201:100 4.06087e-07
23 *985:C1 *207:38 8.44271e-06
24 *985:C1 *208:81 0.000590492
25 *985:C1 *254:10 0.000176242
26 *1022:A2_N *170:35 1.05731e-05
27 *1041:S *1004:C1 0.000269665
28 *1041:S *1041:A1 9.84673e-05
29 *1041:S *112:41 0
30 *1041:S *127:31 1.36826e-05
31 *1041:S *194:14 0.000141969
32 *1041:S *267:14 8.60798e-05
33 *1096:A *1004:C1 0.00127295
34 *1096:A *143:16 0.000634786
35 *1096:A *224:12 0.000108531
36 *1096:A *238:70 4.31964e-05
37 *1096:A *247:46 1.21258e-05
38 *110:53 *1022:A1_N 3.28686e-05
39 *110:53 *1075:A1 1.8038e-05
40 *110:53 *128:44 0.000127359
41 *110:53 *132:12 0.000592973
42 *110:53 *154:18 0.000377848
43 *110:53 *160:20 0.000143222
44 *110:53 *170:35 0.000498929
45 *110:53 *247:71 7.4413e-05
46 *110:70 *1056:A1 0.000250725
47 *110:70 *116:23 0.000136447
48 *110:70 *120:76 5.96516e-05
49 *110:70 *132:12 0.000221822
50 *110:70 *159:18 0.0011851
51 *110:70 *170:35 9.77264e-06
52 *110:70 *174:29 0.000475642
53 *110:70 *181:28 1.90936e-05
54 *110:70 *223:18 9.56046e-05
55 *110:78 *1004:C1 3.10885e-05
56 *110:78 *1056:A1 0.000102206
57 *110:78 *194:14 0.000444465
58 *110:78 *200:30 1.61703e-05
59 *110:78 *204:28 1.90936e-05
60 *110:78 *234:163 0.000182605
61 *944:A *985:C1 0.00010588
62 *944:B *985:C1 6.69937e-05
63 *964:A *985:C1 5.46824e-05
64 *972:A2 *972:C1 0.000172484
65 *1004:B1 *1096:A 0.000175892
66 *1097:A2 *972:C1 2.06112e-05
67 *1146:S *972:C1 2.22674e-05
68 *1146:S *110:70 3.46714e-05
69 *1184:D *985:C1 2.59885e-05
70 *46:20 *110:53 0
71 *65:28 *110:70 0.000289591
72 *77:49 *110:53 4.00349e-05
73 *81:28 *110:53 0.000136356
74 *82:30 *1041:S 5.23735e-05
75 *83:20 *110:53 5.636e-06
76 *85:63 *110:53 0.000158433
77 *87:32 *110:53 8.09008e-05
78 *90:34 *1096:A 0.00034188
79 *93:12 *985:C1 0.000163503
80 *96:42 *985:C1 0.000125958
81 *98:42 *110:53 0.000434519
82 *100:26 *110:53 0.000104976
83 *104:10 *110:6 0.000204641
84 *104:10 *110:53 0.00036505
85 *106:57 *110:6 0.000393091
86 *106:57 *110:53 0.000727344
*RES
1 *971:Y *110:6 13.1214 
2 *110:6 *985:C1 47.6214 
3 *110:6 *110:53 39.5516 
4 *110:53 *1022:A2_N 10.0321 
5 *110:53 *110:70 34.6964 
6 *110:70 *110:78 16.9643 
7 *110:78 *1041:S 19.9607 
8 *110:78 *1096:A 30.55 
9 *110:70 *972:C1 18.8893 
*END

*D_NET *111 0.00169393
*CONN
*I *973:B1 I *D sky130_fd_sc_hd__a21o_1
*I *972:X O *D sky130_fd_sc_hd__o221a_1
*CAP
1 *973:B1 0.000504734
2 *972:X 0.000504734
3 *973:B1 *1005:C 6.3609e-05
4 *973:B1 *1165:CLK 5.33005e-05
5 *973:B1 *1176:CLK 0.000253803
6 *973:B1 *234:163 5.49489e-05
7 *973:B1 *240:14 3.48072e-05
8 *973:A2 *973:B1 1.93007e-05
9 *108:65 *973:B1 0.000204689
*RES
1 *972:X *973:B1 36.0464 
*END

*D_NET *112 0.0196482
*CONN
*I *1031:B I *D sky130_fd_sc_hd__or2_1
*I *974:B I *D sky130_fd_sc_hd__nor2_2
*I *1024:B I *D sky130_fd_sc_hd__nand2_1
*I *1062:A1 I *D sky130_fd_sc_hd__a31o_2
*I *973:X O *D sky130_fd_sc_hd__a21o_1
*CAP
1 *1031:B 0.00091951
2 *974:B 0.000114565
3 *1024:B 0
4 *1062:A1 0
5 *973:X 0.00105798
6 *112:57 0.00100973
7 *112:41 0.00160526
8 *112:30 0.000910694
9 *112:18 0.00240722
10 *974:B *986:B1 0.000194225
11 *974:B *125:32 4.97831e-05
12 *1031:B *1032:A2 1.41884e-05
13 *1031:B *1049:A 6.59192e-05
14 *1031:B *1062:A2 0.000392501
15 *1031:B *1078:A3 9.00182e-05
16 *1031:B *1100:A_N 7.57312e-05
17 *1031:B *119:30 3.07351e-06
18 *1031:B *120:88 0.000298723
19 *1031:B *155:98 9.21418e-06
20 *1031:B *178:71 0.000219598
21 *1031:B *188:14 9.83388e-05
22 *1031:B *196:16 5.55935e-05
23 *1031:B *201:80 1.39894e-05
24 *1031:B *256:22 4.68861e-05
25 *112:18 *1005:B 5.54478e-05
26 *112:18 *1069:A 0.000252193
27 *112:18 *1146:A0 0.000760784
28 *112:18 *1146:A1 9.75171e-05
29 *112:18 *223:18 1.98839e-05
30 *112:18 *240:14 0.000175281
31 *112:30 *1062:A2 0.000788069
32 *112:30 *1062:A3 0.000168497
33 *112:30 *194:14 2.84026e-05
34 *112:30 *201:6 9.60875e-05
35 *112:41 *1004:C1 1.72894e-05
36 *112:41 *1041:A0 7.29646e-05
37 *112:41 *118:59 0.000498214
38 *112:41 *127:31 0.000544345
39 *112:41 *194:14 5.61411e-05
40 *112:57 *1024:A 1.73088e-05
41 *112:57 *1104:A 0.000221815
42 *112:57 *118:59 0.000182266
43 *112:57 *127:31 0.00018379
44 *112:57 *141:36 0.000357001
45 *112:57 *183:34 0.000173493
46 *112:57 *190:30 8.6229e-06
47 *112:57 *198:18 1.7914e-05
48 *112:57 *223:38 0.00072311
49 *112:57 *223:54 4.4873e-05
50 *112:57 *236:73 6.43424e-05
51 *112:57 *259:14 6.18438e-05
52 *979:A *112:57 7.86953e-05
53 *1041:S *112:41 0
54 *1042:A1 *1031:B 8.6229e-06
55 *1113:S *112:57 1.84776e-05
56 *1143:A *974:B 5.09973e-05
57 *31:12 *112:57 0.000188188
58 *51:14 *112:57 0.000308999
59 *56:22 *1031:B 0.000340001
60 *56:22 *112:30 0.000678377
61 *57:22 *112:18 0.00034694
62 *71:14 *974:B 5.49544e-05
63 *71:14 *112:41 4.14768e-05
64 *77:145 *112:57 0.000511766
65 *83:48 *112:57 0.00144349
66 *84:32 *1031:B 9.66219e-05
67 *84:130 *112:30 9.77264e-06
68 *106:37 *1031:B 4.77237e-05
69 *106:57 *1031:B 8.28647e-05
*RES
1 *973:X *112:18 40.1036 
2 *112:18 *112:30 17.3036 
3 *112:30 *1062:A1 9.3 
4 *112:30 *112:41 15.1964 
5 *112:41 *112:57 44.9464 
6 *112:57 *1024:B 9.3 
7 *112:41 *974:B 17.5143 
8 *112:18 *1031:B 41.0857 
*END

*D_NET *113 0.0283117
*CONN
*I *992:A1 I *D sky130_fd_sc_hd__a21oi_2
*I *990:A I *D sky130_fd_sc_hd__or2_1
*I *1000:B1 I *D sky130_fd_sc_hd__a21oi_1
*I *974:Y O *D sky130_fd_sc_hd__nor2_2
*CAP
1 *992:A1 0.00162223
2 *990:A 0.00147108
3 *1000:B1 0.00185173
4 *974:Y 1.34649e-05
5 *113:16 0.00488137
6 *113:10 0.00319425
7 *990:A *1085:S 0.000773873
8 *990:A *128:44 2.83284e-06
9 *990:A *129:26 6.09762e-05
10 *990:A *154:18 0.00196245
11 *990:A *173:38 0.000260361
12 *992:A1 *992:B1 9.42593e-05
13 *992:A1 *1093:B1 0.000147378
14 *992:A1 *1105:A 0.000414107
15 *992:A1 *118:63 1.02821e-05
16 *992:A1 *128:22 7.99184e-05
17 *992:A1 *130:78 1.84474e-05
18 *992:A1 *131:36 6.23338e-05
19 *992:A1 *144:20 0.00010922
20 *992:A1 *181:28 6.10643e-06
21 *992:A1 *212:60 1.28958e-05
22 *992:A1 *239:93 0.000263253
23 *992:A1 *260:36 0.00010769
24 *1000:B1 *1086:A 6.35136e-05
25 *1000:B1 *134:10 8.6229e-06
26 *1000:B1 *134:33 0.000151052
27 *1000:B1 *154:18 3.2444e-05
28 *1000:B1 *169:16 1.03196e-05
29 *1000:B1 *173:20 9.59055e-06
30 *1000:B1 *250:64 0.00031245
31 *113:10 *118:59 4.19624e-06
32 *113:16 *130:78 0.00163349
33 *113:16 *212:60 6.43714e-06
34 *113:16 *263:44 0.000198801
35 *1174:D *1000:B1 5.05438e-05
36 *20:16 *1000:B1 9.15842e-06
37 *32:34 *1000:B1 0.000376225
38 *32:34 *113:16 0.0013669
39 *34:28 *990:A 0.000798402
40 *43:26 *990:A 0.000334518
41 *44:22 *1000:B1 0.000307768
42 *48:36 *992:A1 0.00160284
43 *64:88 *1000:B1 0.00036711
44 *64:88 *113:16 0.000600329
45 *70:32 *113:16 3.13654e-05
46 *73:16 *113:10 2.06178e-05
47 *85:20 *1000:B1 0.000189018
48 *100:26 *990:A 0
49 *101:26 *992:A1 2.07671e-05
50 *101:26 *1000:B1 0.00211729
51 *101:26 *113:16 0.000267374
*RES
1 *974:Y *113:10 17.4868 
2 *113:10 *113:16 4.7517 
3 *113:16 *1000:B1 32.0356 
4 *113:16 *990:A 30.8959 
5 *113:10 *992:A1 33.3136 
*END

*D_NET *114 0.00428538
*CONN
*I *976:C1 I *D sky130_fd_sc_hd__a211o_2
*I *975:X O *D sky130_fd_sc_hd__and4b_1
*CAP
1 *976:C1 0.000594442
2 *975:X 0.000594442
3 *976:C1 *976:A1 0.000201222
4 *976:C1 *1006:A3 0.000440861
5 *976:C1 *1195:A 0.00137601
6 *976:C1 *118:59 0.000111911
7 *976:C1 *141:36 0.000440038
8 *976:C1 *248:41 9.6588e-05
9 *976:C1 *268:30 9.74017e-05
10 *56:22 *976:C1 9.76073e-05
11 *77:131 *976:C1 0.000234866
*RES
1 *975:X *976:C1 46.0464 
*END

*D_NET *115 0.0220351
*CONN
*I *1025:A2 I *D sky130_fd_sc_hd__a31o_1
*I *981:A2 I *D sky130_fd_sc_hd__a31oi_4
*I *976:X O *D sky130_fd_sc_hd__a211o_2
*CAP
1 *1025:A2 0.000256871
2 *981:A2 0
3 *976:X 0.00187458
4 *115:42 0.00261399
5 *115:14 0.00334948
6 *115:12 0.0023532
7 *1025:A2 *1025:A3 1.15124e-05
8 *1025:A2 *121:85 0.000139036
9 *1025:A2 *209:59 1.18544e-05
10 *1025:A2 *248:23 2.97629e-05
11 *1025:A2 *255:38 0.000172373
12 *115:12 *976:A1 0.000432736
13 *115:12 *1006:A3 0.0003085
14 *115:12 *118:59 0.000105932
15 *115:12 *126:18 0.000143114
16 *115:12 *131:36 0.00035199
17 *115:12 *141:36 0.000344047
18 *115:12 *145:8 2.85321e-05
19 *115:14 *124:38 9.23883e-05
20 *115:14 *247:18 0
21 *115:14 *248:23 1.5289e-05
22 *115:14 *248:41 1.03479e-05
23 *115:14 *255:38 2.79167e-05
24 *115:42 *981:B1 0.000807517
25 *115:42 *1026:A1 9.46333e-05
26 *115:42 *1067:A 6.4721e-05
27 *115:42 *1076:A1 0.000264537
28 *115:42 *120:26 0.000144684
29 *115:42 *130:78 8.40779e-05
30 *115:42 *136:24 0.000383004
31 *115:42 *137:20 3.06732e-05
32 *115:42 *169:35 6.30043e-05
33 *115:42 *179:34 4.69403e-05
34 *115:42 *204:28 0.000460284
35 *115:42 *212:32 8.37616e-05
36 *115:42 *249:33 4.58764e-05
37 *115:42 *255:38 3.30259e-05
38 *115:42 *259:50 0.00111642
39 *115:42 *265:16 1.8995e-06
40 *956:A *115:42 1.21068e-05
41 *995:A *115:42 0.00051923
42 *1028:A1 *115:42 0.000696471
43 *1111:S *115:42 9.45051e-05
44 *1114:A *115:42 0
45 *1134:B *115:14 5.58875e-06
46 *1151:A *1025:A2 0.000159698
47 *1177:D *115:42 0.00107024
48 *31:28 *1025:A2 5.18498e-05
49 *31:28 *115:14 0.000679055
50 *32:34 *115:42 0
51 *57:50 *115:42 0.000371092
52 *57:70 *115:42 0.00016986
53 *64:68 *115:14 3.72639e-05
54 *69:14 *115:42 1.94945e-05
55 *93:53 *1025:A2 4.97967e-05
56 *95:53 *115:14 6.2589e-06
57 *96:18 *115:12 0.000980789
58 *100:65 *115:42 0.000654349
59 *102:16 *115:42 5.89558e-05
*RES
1 *976:X *115:12 44.4607 
2 *115:12 *115:14 9.38393 
3 *115:14 *115:42 47.8217 
4 *115:42 *981:A2 9.3 
5 *115:14 *1025:A2 20.2018 
*END

*D_NET *116 0.0347848
*CONN
*I *984:B I *D sky130_fd_sc_hd__nand2_2
*I *985:A2 I *D sky130_fd_sc_hd__o221a_1
*I *978:B I *D sky130_fd_sc_hd__or2_2
*I *1005:C I *D sky130_fd_sc_hd__or3_2
*I *1055:A3 I *D sky130_fd_sc_hd__o31a_1
*I *977:Y O *D sky130_fd_sc_hd__nand2b_2
*CAP
1 *984:B 0.000148204
2 *985:A2 0
3 *978:B 0.000772093
4 *1005:C 0.000631083
5 *1055:A3 0.000307098
6 *977:Y 0.000163185
7 *116:98 0.00262936
8 *116:82 0.00326081
9 *116:60 0.00331834
10 *116:23 0.00323379
11 *116:8 0.0013064
12 *978:B *1065:A 0.000539182
13 *978:B *180:65 0.00201809
14 *978:B *215:14 0.0013317
15 *978:B *258:34 0.00167101
16 *984:B *984:A 5.33005e-05
17 *984:B *1078:A1 0.000356244
18 *984:B *1078:A2 9.46926e-05
19 *984:B *1115:A0 9.54798e-06
20 *984:B *1152:A1 4.22135e-06
21 *984:B *202:14 9.75171e-05
22 *1005:C *973:A1 0.000542435
23 *1005:C *1176:CLK 9.35228e-06
24 *1005:C *174:29 9.92606e-05
25 *1005:C *251:6 5.6647e-05
26 *1055:A3 *1055:A2 5.71472e-05
27 *1055:A3 *1089:A1 0
28 *1055:A3 *194:8 9.84673e-05
29 *1055:A3 *221:37 0
30 *116:8 *1054:A 0.000647945
31 *116:8 *174:45 0.000334695
32 *116:23 *121:18 0.000130937
33 *116:23 *128:44 4.11173e-05
34 *116:23 *168:20 1.53743e-05
35 *116:23 *174:29 0.000243379
36 *116:60 *973:A1 0.000189804
37 *116:60 *1035:A1_N 0.00060891
38 *116:60 *1038:B 8.96293e-05
39 *116:60 *1078:B1 1.98839e-05
40 *116:60 *1100:B 2.06112e-05
41 *116:60 *178:71 1.90936e-05
42 *116:60 *198:54 0.000917121
43 *116:60 *245:14 0.000154668
44 *116:60 *257:14 0.000394555
45 *116:60 *257:49 9.41642e-05
46 *116:82 *985:A1 4.6025e-06
47 *116:82 *1033:A 3.90397e-05
48 *116:82 *1033:B 2.93402e-05
49 *116:82 *1035:A1_N 0.000449822
50 *116:82 *1048:A 5.31139e-06
51 *116:82 *121:85 6.30043e-05
52 *116:82 *154:18 4.02701e-05
53 *116:82 *179:34 0.000533733
54 *116:82 *198:54 0.000255268
55 *116:82 *238:70 0.000195745
56 *116:82 *258:22 0.000223469
57 *116:98 *985:A1 3.19583e-05
58 *116:98 *985:B2 0.000176324
59 *116:98 *1033:A 1.66285e-05
60 *116:98 *1033:B 9.93918e-06
61 *116:98 *1046:A 0.000112898
62 *116:98 *1052:A3 0
63 *116:98 *1071:A 0.000169796
64 *116:98 *1071:B_N 0.000232155
65 *116:98 *1122:A1 0.000132255
66 *116:98 *1173:CLK 0.000220935
67 *116:98 *124:26 0.000246872
68 *116:98 *130:78 0.000238816
69 *116:98 *157:32 1.06773e-05
70 *116:98 *169:35 1.89507e-06
71 *116:98 *183:10 0
72 *116:98 *183:34 0.000133988
73 *116:98 *185:20 0.000310461
74 *116:98 *220:24 0
75 *116:98 *255:20 0
76 *937:A *978:B 0.000490963
77 *973:A2 *1005:C 5.65955e-05
78 *973:B1 *1005:C 6.3609e-05
79 *991:B1 *116:98 0.000294816
80 *1005:A *1005:C 5.20751e-05
81 *1055:A1 *1055:A3 1.39726e-05
82 *1107:S *984:B 1.90936e-05
83 *1130:A *116:98 0.00010861
84 *30:14 *1055:A3 7.89362e-05
85 *39:28 *1005:C 1.74503e-05
86 *49:39 *116:98 0.000106699
87 *50:18 *1005:C 4.40754e-05
88 *50:18 *116:23 0.000575786
89 *63:30 *116:82 0.00037936
90 *65:28 *1055:A3 2.30116e-06
91 *65:28 *116:23 0
92 *79:12 *116:98 0.000544784
93 *82:185 *1055:A3 0.000103506
94 *82:185 *116:23 9.28971e-05
95 *85:63 *116:23 0.000141302
96 *96:28 *116:98 4.43022e-05
97 *100:26 *116:82 3.50637e-05
98 *100:32 *116:82 0.000765891
99 *110:70 *116:23 0.000136447
*RES
1 *977:Y *116:8 20.0857 
2 *116:8 *1055:A3 19.9607 
3 *116:8 *116:23 18.6429 
4 *116:23 *1005:C 26.9607 
5 *116:23 *116:60 26.0944 
6 *116:60 *116:82 26.9002 
7 *116:82 *116:98 48.6071 
8 *116:98 *978:B 42.0321 
9 *116:82 *985:A2 13.8 
10 *116:60 *984:B 21.3261 
*END

*D_NET *117 0.0277418
*CONN
*I *1025:A3 I *D sky130_fd_sc_hd__a31o_1
*I *981:A3 I *D sky130_fd_sc_hd__a31oi_4
*I *978:X O *D sky130_fd_sc_hd__or2_2
*CAP
1 *1025:A3 0.0025585
2 *981:A3 0.00343448
3 *978:X 0.000341788
4 *117:12 0.00633478
5 *981:A3 *1051:A0 3.34366e-05
6 *981:A3 *1090:A 2.14378e-05
7 *981:A3 *1091:A0 0.000219966
8 *981:A3 *1103:A0 0.000591453
9 *981:A3 *139:18 0.000302829
10 *981:A3 *140:12 0.000254756
11 *981:A3 *187:20 0
12 *981:A3 *190:30 0.000311221
13 *981:A3 *203:24 0.00264493
14 *981:A3 *216:20 0.000980021
15 *981:A3 *219:20 0
16 *981:A3 *221:43 0.00202927
17 *1025:A3 *1009:A2 4.17657e-05
18 *1025:A3 *1085:S 0.00015129
19 *1025:A3 *121:85 1.00733e-05
20 *1025:A3 *258:24 4.31969e-05
21 *117:12 *1065:A 1.36077e-05
22 *117:12 *203:24 0.00218088
23 *117:12 *216:14 0
24 *1025:A2 *1025:A3 1.15124e-05
25 *1177:D *1025:A3 4.65519e-05
26 *22:12 *981:A3 1.31516e-05
27 *23:28 *981:A3 0.00273145
28 *23:28 *117:12 0.00229638
29 *31:28 *1025:A3 4.15592e-05
30 *43:26 *1025:A3 2.52099e-05
31 *45:26 *981:A3 2.42845e-05
32 *57:50 *1025:A3 4.65519e-05
33 *93:53 *1025:A3 5.46383e-06
34 *95:73 *1025:A3 0
*RES
1 *978:X *117:12 23.0099 
2 *117:12 *981:A3 41.5276 
3 *117:12 *1025:A3 30.0535 
*END

*D_NET *118 0.0158071
*CONN
*I *980:B I *D sky130_fd_sc_hd__or2_2
*I *1105:C I *D sky130_fd_sc_hd__and3_1
*I *1006:B1 I *D sky130_fd_sc_hd__a31oi_4
*I *979:Y O *D sky130_fd_sc_hd__nor2_2
*CAP
1 *980:B 0.000478521
2 *1105:C 0.000115387
3 *1006:B1 0
4 *979:Y 0.00114734
5 *118:63 0.000865721
6 *118:59 0.00143729
7 *118:24 0.00231281
8 *980:B *1045:A 5.49489e-05
9 *980:B *1045:B 4.36805e-05
10 *980:B *1050:A0 0.0013344
11 *980:B *128:22 0.000695354
12 *980:B *188:14 0.000181036
13 *1105:C *1050:A0 0.00019255
14 *1105:C *1105:A 2.07889e-05
15 *1105:C *128:22 1.52978e-05
16 *1105:C *131:36 2.02321e-05
17 *1105:C *180:8 1.95435e-05
18 *118:24 *1011:B1 9.83704e-05
19 *118:24 *1043:A 4.41457e-05
20 *118:24 *1052:A1 5.65955e-05
21 *118:24 *1172:CLK 3.05155e-05
22 *118:24 *145:41 3.47641e-06
23 *118:24 *150:44 0.000930229
24 *118:24 *198:18 0
25 *118:24 *234:18 2.93302e-05
26 *118:24 *234:31 1.14483e-05
27 *118:59 *976:A1 5.50052e-05
28 *118:59 *992:B1 9.41642e-05
29 *118:59 *1041:A1 1.32293e-05
30 *118:59 *127:31 0.000158407
31 *118:59 *141:36 0.000141941
32 *118:59 *180:8 0.000436074
33 *118:59 *195:12 1.51571e-05
34 *118:59 *206:34 0.000164377
35 *118:59 *218:16 0.000123281
36 *118:63 *992:B1 0.000228325
37 *118:63 *128:22 9.66977e-05
38 *118:63 *195:12 0.000476057
39 *118:63 *260:36 0.000137983
40 *967:A *1105:C 0
41 *976:C1 *118:59 0.000111911
42 *979:A *118:24 5.33005e-05
43 *992:A1 *118:63 1.02821e-05
44 *1050:S *118:59 0.000225811
45 *1125:A *118:59 4.91481e-05
46 *1172:D *118:24 0
47 *31:12 *118:24 2.06531e-05
48 *32:34 *118:59 6.28948e-05
49 *48:36 *118:24 0.000919714
50 *71:14 *118:59 0.000498214
51 *73:16 *118:59 0
52 *76:32 *980:B 0.000239229
53 *77:145 *118:24 0.000178503
54 *82:30 *118:59 0.000150984
55 *84:130 *118:59 0.000216096
56 *112:41 *118:59 0.000498214
57 *112:57 *118:59 0.000182266
58 *113:10 *118:59 4.19624e-06
59 *115:12 *118:59 0.000105932
*RES
1 *979:Y *118:24 37.0018 
2 *118:24 *1006:B1 9.3 
3 *118:24 *118:59 47.25 
4 *118:59 *118:63 11.6071 
5 *118:63 *1105:C 16.55 
6 *118:63 *980:B 32.6929 
*END

*D_NET *119 0.0215274
*CONN
*I *1025:B1 I *D sky130_fd_sc_hd__a31o_1
*I *981:B1 I *D sky130_fd_sc_hd__a31oi_4
*I *980:X O *D sky130_fd_sc_hd__or2_2
*CAP
1 *1025:B1 0.000599521
2 *981:B1 0.00180036
3 *980:X 0.00142213
4 *119:46 0.00321232
5 *119:30 0.00223457
6 *981:B1 *1128:A0 0.000258205
7 *981:B1 *155:63 9.43514e-06
8 *981:B1 *179:34 9.57263e-05
9 *981:B1 *204:28 7.47317e-05
10 *981:B1 *228:24 0.000193263
11 *981:B1 *236:33 0.000940183
12 *981:B1 *255:71 0.00012356
13 *981:B1 *265:16 4.98394e-05
14 *1025:B1 *1009:A2 1.02704e-05
15 *1025:B1 *120:76 0.000857559
16 *1025:B1 *248:23 1.25275e-05
17 *119:30 *977:A_N 6.25005e-05
18 *119:30 *1042:A3 0.00018013
19 *119:30 *1078:A3 0
20 *119:30 *1094:A1 0.000407442
21 *119:30 *1095:A2 2.16528e-05
22 *119:30 *1100:A_N 4.01462e-06
23 *119:30 *150:60 0.0010403
24 *119:30 *201:80 2.45832e-05
25 *119:46 *1078:A1 0.000109448
26 *119:46 *1078:A2 2.19907e-05
27 *119:46 *1128:A0 0.000251907
28 *119:46 *123:22 0.000119063
29 *119:46 *251:16 9.23883e-05
30 *119:46 *257:14 0.000136682
31 *119:46 *261:14 0.000114671
32 *958:B *119:30 0.000353633
33 *965:A *119:46 0.000387262
34 *1031:B *119:30 3.07351e-06
35 *1151:A *1025:B1 6.47254e-05
36 *1177:D *1025:B1 2.34861e-05
37 *1183:RESET_B *981:B1 1.94945e-05
38 *21:34 *1025:B1 0.000865191
39 *34:28 *981:B1 0.000132509
40 *39:28 *119:30 0.0003683
41 *43:26 *981:B1 0.00016763
42 *84:81 *1025:B1 2.39838e-05
43 *88:70 *119:30 0.00093201
44 *89:22 *981:B1 0.00203749
45 *89:22 *119:46 0.000227601
46 *90:84 *119:46 0.0001489
47 *93:22 *981:B1 0
48 *93:53 *1025:B1 4.09607e-05
49 *106:37 *119:30 0.000442658
50 *115:42 *981:B1 0.000807517
*RES
1 *980:X *119:30 46.8039 
2 *119:30 *119:46 28.0312 
3 *119:46 *981:B1 24.7931 
4 *119:46 *1025:B1 27.0681 
*END

*D_NET *120 0.0268515
*CONN
*I *993:A I *D sky130_fd_sc_hd__clkbuf_1
*I *1058:B I *D sky130_fd_sc_hd__and4_1
*I *982:B I *D sky130_fd_sc_hd__xnor2_2
*I *1042:A2 I *D sky130_fd_sc_hd__a31o_1
*I *1027:B I *D sky130_fd_sc_hd__and2_1
*I *1028:A2 I *D sky130_fd_sc_hd__a211o_1
*I *981:Y O *D sky130_fd_sc_hd__a31oi_4
*CAP
1 *993:A 0
2 *1058:B 0.00011126
3 *982:B 0.0004444
4 *1042:A2 2.37855e-05
5 *1027:B 0.000772016
6 *1028:A2 0
7 *981:Y 0.0011307
8 *120:88 0.000837153
9 *120:78 0.000480228
10 *120:76 0.00199069
11 *120:39 0.00358824
12 *120:26 0.00195623
13 *982:B *977:A_N 6.01075e-05
14 *982:B *1042:A3 0.000304311
15 *982:B *1098:B1 1.76569e-05
16 *982:B *188:14 0.000346054
17 *982:B *201:80 0.000683249
18 *982:B *256:22 1.64621e-05
19 *1027:B *155:34 1.6162e-05
20 *1027:B *269:26 0.000847874
21 *1058:B *1058:C 5.33005e-05
22 *120:26 *1076:A1 0.000597831
23 *120:26 *130:39 0.000787936
24 *120:26 *249:33 0
25 *120:26 *265:16 2.51133e-05
26 *120:39 *1028:B1 0.000266554
27 *120:39 *1071:B_N 5.49544e-05
28 *120:39 *121:85 0.00071888
29 *120:39 *124:26 0.000390329
30 *120:39 *209:59 2.18985e-05
31 *120:39 *259:50 0.000753102
32 *120:76 *145:75 0.000490489
33 *120:76 *155:63 0.000165362
34 *120:76 *159:18 0.000137179
35 *120:76 *160:20 0.000254839
36 *120:76 *170:35 0.00017754
37 *120:76 *222:30 0.000252568
38 *120:88 *1049:A 0.000113496
39 *120:88 *170:35 5.58875e-06
40 *120:88 *188:14 0.000307481
41 *120:88 *256:22 2.36643e-05
42 *953:B1 *120:88 4.20044e-05
43 *953:C1 *1058:B 0.000207462
44 *953:C1 *120:88 2.06725e-05
45 *956:A *120:26 2.1599e-05
46 *959:A1 *120:76 5.88613e-05
47 *965:A *120:76 2.06178e-05
48 *982:A *982:B 0.000440481
49 *1025:B1 *120:76 0.000857559
50 *1027:A *1027:B 0.000865333
51 *1027:A *120:76 0.000145023
52 *1028:A1 *120:26 6.09762e-05
53 *1028:A1 *120:39 5.50052e-05
54 *1028:C1 *120:26 4.00349e-05
55 *1031:B *120:88 0.000298723
56 *1042:A1 *120:88 9.83442e-05
57 *1111:S *120:26 0.000419956
58 *1114:A *120:26 2.15178e-05
59 *1177:D *120:76 3.29339e-05
60 *1183:RESET_B *120:26 0
61 *21:34 *120:76 0.000141955
62 *24:26 *120:76 4.12879e-05
63 *33:16 *1027:B 0.000162511
64 *49:61 *120:76 1.84431e-05
65 *63:30 *120:76 0.000165782
66 *81:72 *982:B 0.000138634
67 *83:20 *120:76 1.84474e-05
68 *83:30 *120:76 0.00102507
69 *84:81 *1027:B 0.000505029
70 *84:81 *120:76 0.000542613
71 *90:70 *120:26 0.000149516
72 *95:18 *120:26 0.000430045
73 *98:79 *1058:B 5.33005e-05
74 *106:57 *120:88 1.52217e-05
75 *108:18 *1058:B 0.000199827
76 *108:18 *120:88 0.000107671
77 *110:70 *120:76 5.96516e-05
78 *115:42 *120:26 0.000144684
*RES
1 *981:Y *120:26 37.6019 
2 *120:26 *1028:A2 9.3 
3 *120:26 *120:39 23.25 
4 *120:39 *1027:B 33.7107 
5 *120:39 *120:76 28.3871 
6 *120:76 *120:78 4.5 
7 *120:78 *120:88 12.5714 
8 *120:88 *1042:A2 9.72857 
9 *120:88 *982:B 31.4786 
10 *120:78 *1058:B 17.1929 
11 *120:76 *993:A 9.3 
*END

*D_NET *121 0.0254367
*CONN
*I *987:A2 I *D sky130_fd_sc_hd__o21a_1
*I *988:C I *D sky130_fd_sc_hd__or3_2
*I *982:Y O *D sky130_fd_sc_hd__xnor2_2
*CAP
1 *987:A2 6.94355e-05
2 *988:C 0
3 *982:Y 0.00333937
4 *121:85 0.00270577
5 *121:50 0.00150533
6 *121:18 0.00748104
7 *987:A2 *270:30 9.58126e-05
8 *121:18 *1093:B1 0.000233584
9 *121:18 *207:18 0.000469434
10 *121:18 *263:18 0.00022197
11 *121:50 *988:B 4.63219e-05
12 *121:50 *1093:B1 6.68083e-05
13 *121:50 *144:20 0.000264946
14 *121:50 *182:6 5.33005e-05
15 *121:50 *206:18 0.000116213
16 *121:50 *240:14 7.26841e-05
17 *121:50 *243:20 5.88478e-05
18 *121:85 *1026:S 0.000486072
19 *121:85 *1033:A 0.000188945
20 *121:85 *1126:A0 6.26523e-05
21 *121:85 *1126:A1 0.00038021
22 *121:85 *124:26 0.000322022
23 *121:85 *130:78 4.56579e-05
24 *121:85 *141:36 0.000127997
25 *121:85 *169:35 0.00023078
26 *121:85 *209:59 0.000222719
27 *121:85 *212:60 0.00181513
28 *121:85 *227:51 0.00011595
29 *121:85 *270:30 8.50349e-06
30 *976:A2 *121:50 0
31 *976:B1 *121:50 0.000262746
32 *987:A1 *987:A2 0.00013921
33 *1025:A2 *121:85 0.000139036
34 *1025:A3 *121:85 1.00733e-05
35 *1097:A2 *121:18 9.08889e-06
36 *1153:A *121:50 6.88348e-05
37 *1177:D *121:85 0.000213174
38 *32:64 *121:85 1.35511e-05
39 *46:20 *121:18 5.56798e-05
40 *50:18 *121:18 0.000129093
41 *51:14 *121:50 0.000162475
42 *57:50 *121:85 0.000328142
43 *65:28 *121:85 0.000390456
44 *76:32 *121:18 0
45 *82:54 *121:85 4.58194e-05
46 *82:135 *121:18 0.000993701
47 *83:48 *121:50 7.54868e-05
48 *83:48 *121:85 4.22135e-06
49 *85:63 *121:18 0.000137983
50 *89:22 *121:18 0.000262992
51 *89:48 *121:50 6.72214e-05
52 *90:24 *121:50 4.65158e-06
53 *90:24 *121:85 0.000137805
54 *103:32 *987:A2 2.28598e-05
55 *103:32 *121:85 4.20699e-05
56 *116:23 *121:18 0.000130937
57 *116:82 *121:85 6.30043e-05
58 *120:39 *121:85 0.00071888
*RES
1 *982:Y *121:18 31.2343 
2 *121:18 *121:50 48.5954 
3 *121:50 *988:C 9.3 
4 *121:18 *121:85 47.2302 
5 *121:85 *987:A2 15.5679 
*END

*D_NET *122 0.0196553
*CONN
*I *1054:B I *D sky130_fd_sc_hd__or2_1
*I *1014:B I *D sky130_fd_sc_hd__nor2_1
*I *984:A I *D sky130_fd_sc_hd__nand2_2
*I *983:X O *D sky130_fd_sc_hd__dlymetal6s2s_1
*CAP
1 *1054:B 0
2 *1014:B 0.000637304
3 *984:A 0.000539378
4 *983:X 5.94387e-05
5 *122:62 0.00170531
6 *122:37 0.0030031
7 *122:10 0.00290517
8 *122:8 0.00176475
9 *984:A *1078:A2 5.49489e-05
10 *984:A *174:73 0.000109459
11 *1014:B *1098:A1 0.000179039
12 *1014:B *271:43 0.0015676
13 *122:8 *267:40 1.07719e-05
14 *122:37 *1054:A 8.34937e-05
15 *122:37 *1061:B1 0.000145355
16 *122:37 *130:39 0.00014615
17 *122:37 *146:26 6.32065e-05
18 *122:37 *174:73 6.38027e-05
19 *122:62 *1058:D 0.00026665
20 *122:62 *1078:A3 0.000161886
21 *122:62 *1087:A0 0.000351097
22 *122:62 *1097:B2 9.69455e-05
23 *122:62 *155:98 0.000340995
24 *122:62 *197:16 0.00123267
25 *122:62 *218:16 0.000717403
26 *122:62 *267:40 5.20448e-05
27 *946:B *122:62 0.000173029
28 *968:A *1014:B 0.000139344
29 *983:A *122:8 1.05731e-05
30 *984:B *984:A 5.33005e-05
31 *1097:C1 *122:62 4.35597e-05
32 *1107:S *122:37 4.1178e-05
33 *1148:S *122:37 0.000265445
34 *21:34 *122:37 8.81866e-05
35 *71:43 *984:A 0.000638113
36 *74:10 *122:37 0.000548245
37 *77:43 *984:A 0.000516459
38 *93:53 *984:A 7.84525e-05
39 *97:20 *122:62 0.00049015
40 *98:42 *984:A 0.000203705
41 *98:42 *122:37 7.54115e-05
42 *107:12 *122:37 3.21438e-05
*RES
1 *983:X *122:8 10.2643 
2 *122:8 *122:10 4.5 
3 *122:10 *984:A 26.9071 
4 *122:10 *122:37 46.6607 
5 *122:37 *1014:B 24.6214 
6 *122:8 *122:62 48.6786 
7 *122:62 *1054:B 13.8 
*END

*D_NET *123 0.0218745
*CONN
*I *1020:B I *D sky130_fd_sc_hd__nand2_1
*I *1040:S I *D sky130_fd_sc_hd__mux2_1
*I *985:B1 I *D sky130_fd_sc_hd__o221a_1
*I *984:Y O *D sky130_fd_sc_hd__nand2_2
*CAP
1 *1020:B 0
2 *1040:S 0.00140359
3 *985:B1 0.000640889
4 *984:Y 0.000136255
5 *123:80 0.00136696
6 *123:22 0.00381146
7 *123:6 0.0032702
8 *985:B1 *1071:A 0.000758519
9 *985:B1 *1173:CLK 0.000429714
10 *985:B1 *172:16 3.08225e-05
11 *985:B1 *233:19 7.57673e-05
12 *985:B1 *233:133 0.000227078
13 *985:B1 *262:12 8.6229e-06
14 *1040:S *1040:A0 1.98839e-05
15 *1040:S *1040:A1 0.000643354
16 *1040:S *1048:B 0.000616495
17 *1040:S *1067:B 0.000219366
18 *1040:S *172:16 5.33005e-05
19 *1040:S *187:12 5.69386e-05
20 *1040:S *233:137 0.00016978
21 *1040:S *233:143 9.67754e-05
22 *123:6 *973:A1 0.000178425
23 *123:22 *1032:A1 6.05161e-06
24 *123:22 *1071:A 2.94869e-05
25 *123:22 *1094:A1 1.90936e-05
26 *123:22 *1097:B2 7.58103e-05
27 *123:22 *1140:A 0.000107031
28 *123:22 *158:20 0.000541328
29 *123:22 *174:73 0.000126776
30 *123:22 *198:54 0.00010769
31 *123:22 *251:16 1.21258e-05
32 *123:22 *257:14 0.000221815
33 *123:22 *261:14 0.000257566
34 *123:22 *262:12 7.52065e-05
35 *123:80 *973:A1 0.00155353
36 *123:80 *1020:A 0.000154041
37 *123:80 *1098:B1 2.97489e-05
38 *123:80 *194:14 0.000107677
39 *123:80 *221:37 0.00109589
40 *123:80 *251:16 0.00113944
41 *964:A *985:B1 9.99111e-05
42 *965:A *123:22 3.29715e-05
43 *985:C1 *985:B1 7.26721e-05
44 *985:C1 *123:22 0.000196091
45 *1130:A *985:B1 1.24368e-05
46 *1162:D *123:22 3.32132e-06
47 *20:16 *1040:S 2.19907e-05
48 *65:28 *123:80 0.00132828
49 *96:42 *985:B1 9.21418e-06
50 *96:42 *123:22 0.000104003
51 *119:46 *123:22 0.000119063
*RES
1 *984:Y *123:6 11.0679 
2 *123:6 *123:22 41.8214 
3 *123:22 *985:B1 29.2286 
4 *123:22 *1040:S 38.8536 
5 *123:6 *123:80 45.8214 
6 *123:80 *1020:B 9.3 
*END

*D_NET *124 0.0133908
*CONN
*I *986:B1 I *D sky130_fd_sc_hd__a21o_1
*I *999:B1 I *D sky130_fd_sc_hd__a21oi_1
*I *985:X O *D sky130_fd_sc_hd__o221a_1
*CAP
1 *986:B1 0.00104829
2 *999:B1 2.83476e-05
3 *985:X 0.00095317
4 *124:38 0.00264202
5 *124:26 0.00251855
6 *986:B1 *986:A1 0.000155628
7 *986:B1 *999:A1 1.02821e-05
8 *986:B1 *125:6 1.92789e-05
9 *986:B1 *125:32 7.58625e-05
10 *986:B1 *257:49 1.44566e-05
11 *986:B1 *263:50 2.95642e-05
12 *999:B1 *999:A1 4.05828e-05
13 *124:26 *1122:A1 0.000452223
14 *124:26 *169:35 1.76649e-05
15 *124:26 *226:30 1.84044e-05
16 *124:26 *227:18 9.58126e-05
17 *124:38 *999:A1 2.19603e-05
18 *124:38 *999:A2 0.00122412
19 *124:38 *1109:A1 0.000137983
20 *124:38 *138:24 2.13481e-06
21 *124:38 *138:34 0.00145285
22 *124:38 *217:18 0.000529545
23 *124:38 *223:54 0.000136676
24 *964:A *124:26 1.58163e-05
25 *974:B *986:B1 0.000194225
26 *986:A2 *986:B1 4.96113e-05
27 *1143:A *986:B1 8.35979e-05
28 *32:34 *124:26 0
29 *56:22 *986:B1 9.76775e-05
30 *64:68 *124:38 9.23883e-05
31 *82:18 *986:B1 0.000180496
32 *115:14 *124:38 9.23883e-05
33 *116:98 *124:26 0.000246872
34 *120:39 *124:26 0.000390329
35 *121:85 *124:26 0.000322022
*RES
1 *985:X *124:26 48.4071 
2 *124:26 *124:38 41.8705 
3 *124:38 *999:B1 10.1795 
4 *124:38 *986:B1 34.3759 
*END

*D_NET *125 0.0143409
*CONN
*I *988:B I *D sky130_fd_sc_hd__or3_2
*I *987:B1 I *D sky130_fd_sc_hd__o21a_1
*I *986:X O *D sky130_fd_sc_hd__a21o_1
*CAP
1 *988:B 0.00101737
2 *987:B1 0.000505234
3 *986:X 7.32454e-05
4 *125:32 0.00234549
5 *125:6 0.00293087
6 *987:B1 *1077:A1 6.05161e-06
7 *987:B1 *1077:C1 0.000273545
8 *987:B1 *174:112 1.21258e-05
9 *987:B1 *205:24 0.00055215
10 *987:B1 *217:18 0.000654265
11 *988:B *1006:A3 0
12 *988:B *1043:A 2.93922e-05
13 *988:B *1043:B 0.000146919
14 *988:B *176:12 0.000328243
15 *988:B *182:6 5.33005e-05
16 *988:B *197:46 0
17 *988:B *216:79 1.01912e-05
18 *988:B *223:38 0.000144038
19 *125:32 *975:B 0
20 *125:32 *986:A1 0.000681248
21 *125:32 *999:A2 0.000189258
22 *125:32 *127:31 0.000151666
23 *125:32 *130:78 0.00033205
24 *125:32 *138:24 0.000422217
25 *125:32 *212:60 0.000795991
26 *125:32 *223:54 0.000591941
27 *125:32 *227:51 0.000591671
28 *125:32 *234:65 5.01649e-06
29 *125:32 *255:38 8.8376e-05
30 *125:32 *257:49 4.73953e-05
31 *974:B *125:32 4.97831e-05
32 *976:A2 *988:B 0.000439933
33 *976:B1 *988:B 0
34 *986:A2 *125:32 9.83388e-05
35 *986:B1 *125:6 1.92789e-05
36 *986:B1 *125:32 7.58625e-05
37 *1143:A *125:32 0.000151016
38 *45:26 *125:32 0.000139297
39 *54:12 *987:B1 0.000211394
40 *55:14 *125:32 6.13772e-05
41 *71:14 *125:32 3.1367e-05
42 *82:12 *988:B 0
43 *82:18 *125:6 6.8445e-06
44 *90:24 *125:6 3.08664e-05
45 *121:50 *988:B 4.63219e-05
*RES
1 *986:X *125:6 10.6571 
2 *125:6 *125:32 46.9678 
3 *125:32 *987:B1 31.8893 
4 *125:6 *988:B 38.6393 
*END

*D_NET *126 0.0185121
*CONN
*I *1032:B1 I *D sky130_fd_sc_hd__a21oi_2
*I *274:DIODE I *D sky130_fd_sc_hd__diode_2
*I *989:A I *D sky130_fd_sc_hd__or2b_1
*I *987:X O *D sky130_fd_sc_hd__o21a_1
*CAP
1 *1032:B1 0.000997292
2 *274:DIODE 0
3 *989:A 0.000170159
4 *987:X 0.000166345
5 *126:28 0.00170458
6 *126:18 0.0029499
7 *126:10 0.00257911
8 *1032:B1 *1041:A0 0.000193979
9 *1032:B1 *171:20 0.00086954
10 *1032:B1 *174:73 9.54798e-06
11 *1032:B1 *238:70 0.000157445
12 *126:10 *1077:A1 5.74499e-06
13 *126:10 *1077:B1 4.58194e-05
14 *126:10 *1077:C1 1.58163e-05
15 *126:10 *1085:A0 1.12323e-05
16 *126:18 *1085:A0 0.000134768
17 *126:18 *1195:A 0.00101468
18 *126:18 *129:26 0.000411524
19 *126:18 *141:36 0.000806056
20 *126:18 *205:24 6.18969e-06
21 *126:18 *212:32 0.000261223
22 *126:28 *1092:A 1.30182e-05
23 *126:28 *166:14 0.00011307
24 *937:A *126:28 0.000321956
25 *965:A *1032:B1 1.8791e-05
26 *1027:A *126:10 1.90936e-05
27 *1027:A *126:18 0.00132299
28 *1150:S *1032:B1 0.00013028
29 *1167:D *989:A 0.000121894
30 *1167:D *126:28 0.00146006
31 *1170:D *126:18 4.84073e-05
32 *55:14 *126:28 0.00074261
33 *56:12 *126:28 0.000108434
34 *59:18 *126:28 0.000119679
35 *63:30 *1032:B1 0.000500934
36 *71:43 *1032:B1 0.000724458
37 *96:18 *126:18 9.23209e-05
38 *115:12 *126:18 0.000143114
*RES
1 *987:X *126:10 15.8446 
2 *126:10 *126:18 44.1518 
3 *126:18 *126:28 35.125 
4 *126:28 *989:A 11.9071 
5 *126:28 *274:DIODE 9.3 
6 *126:10 *1032:B1 35.3634 
*END

*D_NET *127 0.0152543
*CONN
*I *1032:A2 I *D sky130_fd_sc_hd__a21oi_2
*I *989:B_N I *D sky130_fd_sc_hd__or2b_1
*I *988:X O *D sky130_fd_sc_hd__or3_2
*CAP
1 *1032:A2 0.001543
2 *989:B_N 0.000174962
3 *988:X 9.8501e-05
4 *127:31 0.00314035
5 *127:10 0.00187082
6 *989:B_N *180:39 0.000200113
7 *989:B_N *206:18 0
8 *1032:A2 *977:A_N 1.08488e-05
9 *1032:A2 *1032:A1 5.49489e-05
10 *1032:A2 *1038:A 5.33005e-05
11 *1032:A2 *1095:A2 3.04901e-05
12 *1032:A2 *1107:A0 5.65525e-05
13 *1032:A2 *178:71 0.000246751
14 *1032:A2 *181:28 0.00104707
15 *1032:A2 *198:28 0.000195633
16 *1032:A2 *198:54 0.000266385
17 *1032:A2 *200:30 5.70609e-05
18 *1032:A2 *228:24 3.05605e-05
19 *1032:A2 *239:93 9.06484e-05
20 *1032:A2 *242:24 0.000313991
21 *1032:A2 *245:14 1.75318e-05
22 *1032:A2 *251:16 0.000116011
23 *1032:A2 *257:14 8.55871e-05
24 *127:10 *1044:B 5.35514e-05
25 *127:10 *180:39 0.000124749
26 *127:10 *182:41 2.59355e-05
27 *127:31 *940:A 0.000552335
28 *127:31 *975:B 0
29 *127:31 *1043:A 0
30 *127:31 *1044:B 0.000141343
31 *127:31 *145:41 0
32 *127:31 *181:28 4.59146e-05
33 *127:31 *197:46 0
34 *127:31 *216:14 0
35 *127:31 *235:31 0
36 *127:31 *239:76 0
37 *127:31 *248:41 0.000117673
38 *127:31 *260:42 0.00147828
39 *127:31 *267:14 0
40 *1031:B *1032:A2 1.41884e-05
41 *1041:S *127:31 1.36826e-05
42 *1125:A *127:31 0
43 *1143:A *127:31 7.65312e-06
44 *1167:D *989:B_N 0.000140133
45 *44:22 *127:31 1.90936e-05
46 *57:36 *1032:A2 4.39992e-05
47 *65:28 *1032:A2 0.000920457
48 *70:32 *127:31 1.7991e-05
49 *81:142 *127:31 9.5393e-05
50 *82:12 *127:31 2.38501e-05
51 *83:94 *1032:A2 0.000678783
52 *112:41 *127:31 0.000544345
53 *112:57 *127:31 0.00018379
54 *118:59 *127:31 0.000158407
55 *125:32 *127:31 0.000151666
*RES
1 *988:X *127:10 15.9786 
2 *127:10 *989:B_N 18.1214 
3 *127:10 *127:31 49.8654 
4 *127:31 *1032:A2 39.9452 
*END

*D_NET *128 0.0201132
*CONN
*I *992:A2 I *D sky130_fd_sc_hd__a21oi_2
*I *990:B I *D sky130_fd_sc_hd__or2_1
*I *989:X O *D sky130_fd_sc_hd__or2b_1
*CAP
1 *992:A2 3.3218e-05
2 *990:B 0
3 *989:X 0.000853873
4 *128:44 0.00238081
5 *128:22 0.0033573
6 *128:12 0.00186358
7 *128:12 *1029:A1 0.000100823
8 *128:12 *1050:A0 0.000395554
9 *128:12 *1197:A 0.00140198
10 *128:12 *166:26 0.000143146
11 *128:12 *180:39 0.000230969
12 *128:12 *212:60 7.14759e-05
13 *128:12 *245:20 0.000441536
14 *128:22 *1029:A1 0
15 *128:22 *1050:A0 6.66498e-06
16 *128:22 *224:12 0
17 *128:44 *949:A_N 1.28005e-05
18 *128:44 *1055:B1 4.10399e-05
19 *128:44 *1158:CLK 0.000534446
20 *128:44 *141:14 7.24392e-05
21 *128:44 *167:32 0.000416185
22 *128:44 *168:20 0.00148403
23 *128:44 *170:35 0.000368222
24 *128:44 *207:18 0.00104241
25 *128:44 *207:38 9.44503e-05
26 *128:44 *234:121 8.6229e-06
27 *128:44 *247:71 0.000810433
28 *128:44 *256:22 3.09889e-05
29 an[3] *128:22 0
30 seg[4] *128:12 2.18087e-05
31 seg[5] *128:12 2.22043e-05
32 *967:A *128:22 0.000959133
33 *980:B *128:22 0.000695354
34 *990:A *128:44 2.83284e-06
35 *992:A1 *128:22 7.99184e-05
36 *1037:A1 *128:12 1.27784e-05
37 *1037:A2 *128:12 1.37255e-05
38 *1097:A2 *128:44 2.27189e-05
39 *1105:C *128:22 1.52978e-05
40 *1159:D *128:44 5.49995e-05
41 *1167:D *128:12 2.22999e-05
42 *46:20 *128:44 0.000155997
43 *76:32 *128:22 0.000211585
44 *82:162 *128:44 0.000680612
45 *85:63 *128:44 6.26129e-05
46 *87:32 *128:44 0.000179037
47 *88:12 *128:44 6.94441e-06
48 *98:42 *128:44 9.38814e-05
49 *105:8 *128:44 0.00033727
50 *106:57 *128:44 0
51 *110:53 *128:44 0.000127359
52 *116:23 *128:44 4.11173e-05
53 *118:63 *128:22 9.66977e-05
*RES
1 *989:X *128:12 45.175 
2 *128:12 *128:22 35.9107 
3 *128:22 *128:44 43.3035 
4 *128:44 *990:B 9.3 
5 *128:12 *992:A2 9.83571 
*END

*D_NET *129 0.0121087
*CONN
*I *1016:A1 I *D sky130_fd_sc_hd__a22o_4
*I *990:X O *D sky130_fd_sc_hd__or2_1
*CAP
1 *1016:A1 0.0015476
2 *990:X 0.00145175
3 *129:26 0.00299935
4 *1016:A1 *1124:A0 0.000351482
5 *1016:A1 *1170:CLK 0.00106413
6 *129:26 *1077:A1 0.000139928
7 *129:26 *1077:C1 0.000362125
8 *129:26 *1085:A0 0.000865217
9 *129:26 *158:20 0.000218313
10 *129:26 *205:24 0.00103362
11 *129:26 *210:49 0.000356429
12 *129:26 *212:32 0.00026274
13 *129:26 *234:121 2.52553e-05
14 *129:26 *256:22 0.000139331
15 *938:A *1016:A1 0.000154367
16 *990:A *129:26 6.09762e-05
17 *1124:S *1016:A1 0.000143007
18 *1170:D *1016:A1 0.00024439
19 *43:26 *129:26 4.60232e-06
20 *54:12 *129:26 6.77917e-05
21 *99:43 *129:26 1.0751e-05
22 *100:26 *129:26 0.000194053
23 *126:18 *129:26 0.000411524
*RES
1 *990:X *129:26 49.6929 
2 *129:26 *1016:A1 37.4964 
*END

*D_NET *130 0.0276451
*CONN
*I *992:B1 I *D sky130_fd_sc_hd__a21oi_2
*I *1060:A I *D sky130_fd_sc_hd__clkbuf_1
*I *1034:B1 I *D sky130_fd_sc_hd__a21oi_1
*I *991:X O *D sky130_fd_sc_hd__o21a_2
*CAP
1 *992:B1 0.000600362
2 *1060:A 0
3 *1034:B1 4.05614e-05
4 *991:X 0
5 *130:78 0.0035239
6 *130:39 0.00239316
7 *130:10 0.00279008
8 *130:4 0.00327989
9 *992:B1 *1056:B1 0.000177545
10 *992:B1 *250:78 6.57032e-05
11 *992:B1 *260:36 0.000136676
12 *1034:B1 *1086:A 0.000136676
13 *1034:B1 *169:35 0.000135028
14 *130:10 *1170:CLK 8.93791e-05
15 *130:10 *138:34 2.22618e-05
16 *130:10 *161:46 0.000183069
17 *130:10 *231:10 0.000975457
18 *130:39 *1034:A2 3.10389e-05
19 *130:39 *1048:A 0.000133892
20 *130:39 *1048:B 7.30214e-05
21 *130:39 *1061:A2 0
22 *130:39 *1061:B1 5.24866e-05
23 *130:39 *1076:A1 7.38905e-05
24 *130:39 *1079:B1 3.97964e-05
25 *130:39 *153:45 0
26 *130:39 *161:30 0.000470313
27 *130:39 *161:46 1.90936e-05
28 *130:39 *179:34 2.68149e-05
29 *130:39 *222:30 0.00028963
30 *130:78 *1034:A2 5.55567e-05
31 *130:78 *1093:B1 5.39198e-06
32 *130:78 *1122:A1 0.00023948
33 *130:78 *131:36 0.000134768
34 *130:78 *181:28 4.16953e-05
35 *130:78 *197:28 4.21517e-05
36 *130:78 *212:60 0.00012211
37 *130:78 *218:16 4.38058e-05
38 *130:78 *226:30 0.000240026
39 *130:78 *231:10 4.25176e-05
40 *130:78 *239:93 0.00018132
41 *130:78 *257:49 5.11642e-05
42 *130:78 *259:50 0.00101436
43 *968:A *130:39 0
44 *992:A1 *992:B1 9.42593e-05
45 *992:A1 *130:78 1.84474e-05
46 *995:A *130:78 2.47373e-05
47 *1142:A *130:39 0.00100625
48 *1177:D *130:78 2.06112e-05
49 *23:28 *130:39 0.0012134
50 *27:18 *130:10 0.000184717
51 *27:18 *130:39 1.04707e-05
52 *45:26 *130:78 0.00013248
53 *48:36 *130:78 2.63501e-05
54 *57:36 *130:78 8.76591e-06
55 *57:50 *130:78 1.30875e-05
56 *64:88 *130:39 0.000131357
57 *64:88 *130:78 0.0013212
58 *71:14 *130:78 0.000546063
59 *73:16 *130:78 0.000153276
60 *84:83 *130:10 0.000168514
61 *84:83 *130:78 5.33005e-05
62 *84:89 *130:10 0.000516715
63 *84:130 *992:B1 0.000109184
64 *90:24 *130:78 0.000184681
65 *100:65 *130:78 0.000110186
66 *104:22 *130:39 0
67 *106:80 *130:39 3.23282e-05
68 *113:16 *130:78 0.00163349
69 *115:42 *130:78 8.40779e-05
70 *116:98 *130:78 0.000238816
71 *118:59 *992:B1 9.41642e-05
72 *118:63 *992:B1 0.000228325
73 *120:26 *130:39 0.000787936
74 *121:85 *130:78 4.56579e-05
75 *122:37 *130:39 0.00014615
76 *125:32 *130:78 0.00033205
*RES
1 *991:X *130:4 9.3 
2 *130:4 *130:10 16.625 
3 *130:10 *1034:B1 15.1571 
4 *130:10 *130:39 43.2629 
5 *130:39 *1060:A 9.3 
6 *130:4 *130:78 48.2334 
7 *130:78 *992:B1 20.6571 
*END

*D_NET *131 0.020104
*CONN
*I *1016:A2 I *D sky130_fd_sc_hd__a22o_4
*I *992:Y O *D sky130_fd_sc_hd__a21oi_2
*CAP
1 *1016:A2 0.00221181
2 *992:Y 0.003245
3 *131:36 0.0054568
4 *1016:A2 *1016:B2 9.60337e-06
5 *1016:A2 *134:33 2.06178e-05
6 *1016:A2 *150:44 0.000222053
7 *1016:A2 *184:14 0.000146999
8 *1016:A2 *243:20 7.77505e-06
9 *131:36 *1105:A 0.000150958
10 *131:36 *1117:D_N 8.96293e-05
11 *131:36 *141:36 0.000387299
12 *131:36 *181:28 0
13 *131:36 *191:54 2.45997e-05
14 *131:36 *235:60 0.000102075
15 *131:36 *238:70 0.000550673
16 *131:36 *239:93 0.000639179
17 *131:36 *243:20 6.3713e-05
18 *937:A *131:36 0.000979101
19 *957:B *131:36 4.14744e-05
20 *967:A *131:36 2.02282e-05
21 *970:B *1016:A2 0.00022319
22 *992:A1 *131:36 6.23338e-05
23 *1105:C *131:36 2.02321e-05
24 *1172:D *131:36 9.60337e-06
25 *26:28 *1016:A2 0.00199997
26 *26:28 *131:36 0.000474606
27 *48:36 *1016:A2 0.00137142
28 *48:36 *131:36 3.655e-05
29 *55:14 *131:36 1.61405e-05
30 *63:30 *131:36 0.000206093
31 *65:28 *131:36 7.89087e-05
32 *78:51 *131:36 1.84474e-05
33 *80:38 *1016:A2 0.000582386
34 *81:72 *131:36 6.07847e-05
35 *82:135 *131:36 8.69554e-05
36 *115:12 *131:36 0.00035199
37 *130:78 *131:36 0.000134768
*RES
1 *992:Y *131:36 48.8461 
2 *131:36 *1016:A2 27.2136 
*END

*D_NET *132 0.00585784
*CONN
*I *994:A I *D sky130_fd_sc_hd__buf_1
*I *993:X O *D sky130_fd_sc_hd__clkbuf_1
*CAP
1 *994:A 0
2 *993:X 0.00206977
3 *132:12 0.00206977
4 *132:12 *1169:CLK 0.000202766
5 *132:12 *170:35 0.000125443
6 *132:12 *233:147 0.000240147
7 *132:12 *233:154 5.28345e-05
8 *132:12 *237:18 0.000117468
9 *37:12 *132:12 0.000108724
10 *88:12 *132:12 2.32625e-05
11 *102:16 *132:12 3.28534e-05
12 *110:53 *132:12 0.000592973
13 *110:70 *132:12 0.000221822
*RES
1 *993:X *132:12 45.4071 
2 *132:12 *994:A 9.3 
*END

*D_NET *133 0.00823603
*CONN
*I *1051:S I *D sky130_fd_sc_hd__mux2_1
*I *1001:A I *D sky130_fd_sc_hd__and2_1
*I *994:X O *D sky130_fd_sc_hd__buf_1
*CAP
1 *1051:S 0.000442283
2 *1001:A 0.00022574
3 *994:X 0.00147757
4 *133:8 0.00214559
5 *1001:A *221:43 0.000124005
6 *1051:S *1051:A0 0.000137541
7 *1051:S *189:34 0.000246605
8 *1051:S *201:116 0.000101777
9 *133:8 *161:30 0.00034887
10 *1120:S *1001:A 0.000809951
11 *1120:S *1051:S 0.000518082
12 *1159:D *133:8 5.95474e-05
13 *1184:RESET_B *1001:A 0.000811665
14 *1184:RESET_B *1051:S 9.0573e-05
15 *42:10 *1051:S 0.000407856
16 *69:14 *133:8 0.000288383
*RES
1 *994:X *133:8 31.5857 
2 *133:8 *1001:A 24.2464 
3 *133:8 *1051:S 27.5857 
*END

*D_NET *134 0.00981995
*CONN
*I *1024:A I *D sky130_fd_sc_hd__nand2_1
*I *1000:A1 I *D sky130_fd_sc_hd__a21oi_1
*I *995:X O *D sky130_fd_sc_hd__buf_1
*CAP
1 *1024:A 0.000774474
2 *1000:A1 0.000142437
3 *995:X 0.000452236
4 *134:33 0.00179284
5 *134:10 0.00161304
6 *1000:A1 *139:18 1.93007e-05
7 *1024:A *943:A 1.98839e-05
8 *1024:A *1028:B1 5.66971e-05
9 *1024:A *150:14 0.00174584
10 *1024:A *163:18 0.000739544
11 *1024:A *239:50 0.000456852
12 *134:10 *1076:A1 0
13 *134:10 *173:20 4.5007e-05
14 *134:10 *233:47 0.000226548
15 *134:10 *259:50 2.12647e-05
16 *134:33 *1016:B2 4.53299e-05
17 *134:33 *1138:A 3.68578e-05
18 *134:33 *169:16 5.51716e-05
19 *134:33 *239:39 5.08914e-05
20 *134:33 *239:50 9.85599e-06
21 *943:B *1024:A 0.000147032
22 *943:C *1024:A 2.39515e-05
23 *947:B *1024:A 0.000518222
24 *947:B *134:33 5.33005e-05
25 *970:B *134:33 1.90936e-05
26 *1000:B1 *134:10 8.6229e-06
27 *1000:B1 *134:33 0.000151052
28 *1016:A2 *134:33 2.06178e-05
29 *1111:S *134:10 0.000175892
30 *1113:S *1024:A 1.4796e-05
31 *1136:B *134:33 5.36422e-05
32 *1163:D *134:10 0
33 *1163:D *134:33 0
34 *20:16 *134:10 0.000105633
35 *31:12 *1024:A 9.58689e-05
36 *49:39 *1024:A 0.000110837
37 *112:57 *1024:A 1.73088e-05
*RES
1 *995:X *134:10 22.175 
2 *134:10 *1000:A1 15.2821 
3 *134:10 *134:33 28.6786 
4 *134:33 *1024:A 36.55 
*END

*D_NET *135 0.00932639
*CONN
*I *997:A I *D sky130_fd_sc_hd__buf_1
*I *996:X O *D sky130_fd_sc_hd__buf_1
*CAP
1 *997:A 0
2 *996:X 0.000607945
3 *135:14 0.00123752
4 *135:8 0.00184547
5 *135:8 *1050:A1 3.97677e-05
6 *135:8 *180:14 0.000105471
7 *135:8 *260:36 0.000135028
8 *135:14 *1029:A1 0
9 *135:14 *1045:A 0.00152677
10 *135:14 *150:48 0.000264615
11 *135:14 *180:14 0.000224652
12 *135:14 *182:41 0.00140404
13 *135:14 *216:81 0
14 *135:14 *216:85 0.000272338
15 an[2] *135:14 0
16 *936:A *135:8 0.000104976
17 *967:A *135:8 0.000134501
18 *996:A *135:8 2.59355e-05
19 *1050:S *135:8 9.41642e-05
20 *30:14 *135:14 1.06641e-05
21 *78:6 *135:8 0.000512928
22 *106:6 *135:8 0.000346132
23 *106:37 *135:8 0.000367773
24 *108:65 *135:8 6.57032e-05
*RES
1 *996:X *135:8 28.7107 
2 *135:8 *135:14 45.4643 
3 *135:14 *997:A 9.3 
*END

*D_NET *136 0.0224554
*CONN
*I *998:A I *D sky130_fd_sc_hd__clkbuf_1
*I *997:X O *D sky130_fd_sc_hd__buf_1
*CAP
1 *998:A 0
2 *997:X 0.0054508
3 *136:24 0.0054508
4 *136:24 *1041:A0 0.000253737
5 *136:24 *1061:A2 0.00140871
6 *136:24 *155:143 5.2563e-05
7 *136:24 *163:18 0.000258288
8 *136:24 *185:55 0.000866033
9 *136:24 *211:18 1.27892e-05
10 *136:24 *216:85 0.000167457
11 *136:24 *226:30 0.00203317
12 *136:24 *235:86 0.00112046
13 an[1] *136:24 8.16045e-05
14 *58:28 *136:24 0.000380461
15 *63:30 *136:24 0.000258556
16 *82:185 *136:24 0.00407768
17 *102:16 *136:24 0.000199331
18 *115:42 *136:24 0.000383004
*RES
1 *997:X *136:24 48.5296 
2 *136:24 *998:A 13.8 
*END

*D_NET *137 0.00977077
*CONN
*I *999:A2 I *D sky130_fd_sc_hd__a21oi_1
*I *998:X O *D sky130_fd_sc_hd__clkbuf_1
*CAP
1 *999:A2 0.000690689
2 *998:X 0.000890485
3 *137:20 0.00158117
4 *999:A2 *999:A1 3.45371e-05
5 *999:A2 *1104:A 0.000312278
6 *999:A2 *138:24 0.000335007
7 *999:A2 *223:54 0.000932065
8 *999:A2 *227:51 4.629e-05
9 *137:20 *155:133 0.000134783
10 *137:20 *217:18 6.09762e-05
11 *137:20 *226:30 1.82329e-05
12 *1111:S *137:20 0.000227276
13 *29:20 *137:20 5.44353e-05
14 *64:88 *137:20 0.000920815
15 *66:20 *999:A2 0.00109719
16 *66:20 *137:20 6.46129e-05
17 *101:26 *137:20 0.000925876
18 *115:42 *137:20 3.06732e-05
19 *124:38 *999:A2 0.00122412
20 *125:32 *999:A2 0.000189258
*RES
1 *998:X *137:20 36.8768 
2 *137:20 *999:A2 33.2643 
*END

*D_NET *138 0.0142273
*CONN
*I *1023:A0 I *D sky130_fd_sc_hd__mux2_1
*I *1000:A2 I *D sky130_fd_sc_hd__a21oi_1
*I *999:Y O *D sky130_fd_sc_hd__a21oi_1
*CAP
1 *1023:A0 0.000743733
2 *1000:A2 3.61152e-05
3 *999:Y 0.000581767
4 *138:34 0.00269142
5 *138:24 0.00249333
6 *1000:A2 *1076:A1 4.58194e-05
7 *1000:A2 *139:18 9.41642e-05
8 *1023:A0 *1023:A1 7.32756e-05
9 *1023:A0 *162:28 8.60703e-05
10 *1023:A0 *249:33 0.000597296
11 *1023:A0 *265:16 9.14771e-06
12 *138:24 *999:A1 7.12022e-05
13 *138:24 *1104:A 0.000310624
14 *138:24 *151:27 0.000161089
15 *138:34 *1104:A 0.000342302
16 *138:34 *1136:A 8.6229e-06
17 *138:34 *1170:CLK 0.000202631
18 *138:34 *223:54 0.000140769
19 *138:34 *231:10 8.13261e-05
20 *138:34 *233:77 0.00043579
21 *138:34 *249:33 0.00012195
22 *991:A1 *138:34 4.58194e-05
23 *991:B1 *138:34 7.22577e-05
24 *999:A2 *138:24 0.000335007
25 *1163:D *1023:A0 0.000725916
26 *1163:D *138:34 0.000120283
27 *1183:RESET_B *1023:A0 0
28 *49:61 *138:34 9.41642e-05
29 *63:30 *1023:A0 0.000109271
30 *82:54 *138:24 0.000159559
31 *84:83 *138:34 0.00119577
32 *84:89 *138:34 0.000141373
33 *124:38 *138:24 2.13481e-06
34 *124:38 *138:34 0.00145285
35 *125:32 *138:24 0.000422217
36 *130:10 *138:34 2.22618e-05
*RES
1 *999:Y *138:24 32.9071 
2 *138:24 *138:34 41.2143 
3 *138:34 *1000:A2 14.7464 
4 *138:34 *1023:A0 30.9786 
*END

*D_NET *139 0.00854221
*CONN
*I *1051:A0 I *D sky130_fd_sc_hd__mux2_1
*I *1001:B I *D sky130_fd_sc_hd__and2_1
*I *1000:Y O *D sky130_fd_sc_hd__a21oi_1
*CAP
1 *1051:A0 0.000858437
2 *1001:B 9.78193e-05
3 *1000:Y 0.000936981
4 *139:18 0.00189324
5 *1051:A0 *1048:A 0.000113008
6 *1051:A0 *1090:A 0.000138271
7 *1051:A0 *1142:B 0
8 *1051:A0 *153:18 0.000636887
9 *1051:A0 *179:34 4.25489e-05
10 *1051:A0 *189:34 0.000246605
11 *1051:A0 *238:12 0
12 *139:18 *1076:A1 7.20784e-05
13 *139:18 *1124:A1 6.91442e-05
14 *139:18 *140:12 0.000256528
15 *139:18 *173:20 6.55564e-05
16 *139:18 *215:12 0.000315366
17 *139:18 *239:22 0.000122509
18 *981:A3 *1051:A0 3.34366e-05
19 *981:A3 *139:18 0.000302829
20 *1000:A1 *139:18 1.93007e-05
21 *1000:A2 *139:18 9.41642e-05
22 *1051:S *1051:A0 0.000137541
23 *1120:S *1051:A0 0.000937849
24 *1145:A *139:18 0.000318726
25 *22:12 *1051:A0 9.39529e-05
26 *22:12 *139:18 0.000409633
27 *28:16 *139:18 8.17663e-05
28 *109:26 *139:18 0.000248033
*RES
1 *1000:Y *139:18 43.5098 
2 *139:18 *1001:B 10.675 
3 *139:18 *1051:A0 43.675 
*END

*D_NET *140 0.00490378
*CONN
*I *1016:B1 I *D sky130_fd_sc_hd__a22o_4
*I *1001:X O *D sky130_fd_sc_hd__and2_1
*CAP
1 *1016:B1 0
2 *1001:X 0.00094523
3 *140:12 0.00094523
4 *140:12 *1083:B 7.80092e-05
5 *140:12 *1090:A 0.000310874
6 *140:12 *1103:A0 2.11419e-05
7 *140:12 *1124:A0 0.000268822
8 *140:12 *215:12 0.00044246
9 *140:12 *239:39 0.00090515
10 *981:A3 *140:12 0.000254756
11 *1124:S *140:12 0.000313946
12 *19:12 *140:12 0.00016163
13 *139:18 *140:12 0.000256528
*RES
1 *1001:X *140:12 48.9071 
2 *140:12 *1016:B1 9.3 
*END

*D_NET *141 0.0234951
*CONN
*I *1055:B1 I *D sky130_fd_sc_hd__o31a_1
*I *1009:B1 I *D sky130_fd_sc_hd__o21a_1
*I *1006:A1 I *D sky130_fd_sc_hd__a31oi_4
*I *1002:X O *D sky130_fd_sc_hd__mux2_2
*CAP
1 *1055:B1 0.000877839
2 *1009:B1 0.000133026
3 *1006:A1 0
4 *1002:X 0.000629264
5 *141:36 0.00168609
6 *141:18 0.00279138
7 *141:14 0.00247936
8 *1009:B1 *1009:A2 1.58163e-05
9 *1009:B1 *1039:B1 1.90936e-05
10 *1009:B1 *1128:A0 8.69554e-05
11 *1009:B1 *146:26 1.90936e-05
12 *1055:B1 *1055:A2 0.00157397
13 *1055:B1 *168:49 0.00047978
14 *1055:B1 *267:40 0.000385317
15 *141:14 *1075:A1 0.000128484
16 *141:14 *247:71 0.000641111
17 *141:18 *1038:B 9.02671e-05
18 *141:18 *1048:A 8.3628e-05
19 *141:18 *1148:A0 2.7999e-05
20 *141:18 *146:26 0.00103523
21 *141:18 *178:18 0.000152217
22 *141:18 *247:71 3.46078e-05
23 *141:36 *1009:A2 0.000137192
24 *141:36 *1195:A 0.000118433
25 *141:36 *145:8 5.50052e-05
26 *141:36 *145:41 8.56143e-05
27 *141:36 *151:27 7.87026e-07
28 *141:36 *157:18 4.65519e-05
29 *141:36 *178:18 0.000547268
30 *141:36 *183:34 0.000158847
31 *141:36 *227:51 0.000121463
32 *141:36 *247:18 0.000150919
33 *141:36 *247:71 0.000126847
34 *141:36 *269:26 0.000102075
35 *976:C1 *141:36 0.000440038
36 *1009:A1 *1009:B1 5.49544e-05
37 *1055:A1 *1055:B1 0.000302728
38 *1137:A *141:14 0.000303972
39 *1144:S *141:14 0.000590151
40 *21:34 *141:36 4.926e-05
41 *77:49 *141:14 2.94158e-05
42 *82:54 *141:36 0.000616358
43 *83:48 *141:36 9.42829e-05
44 *84:14 *1055:B1 0.00115013
45 *85:63 *1055:B1 6.24358e-05
46 *85:63 *141:14 0.000807252
47 *87:32 *141:14 6.09762e-05
48 *89:22 *1009:B1 8.92267e-05
49 *90:42 *1009:B1 0.000180764
50 *90:106 *141:18 0.000565136
51 *95:73 *141:36 0.000290693
52 *96:42 *141:14 0.000140805
53 *100:65 *141:36 1.67662e-05
54 *108:10 *1055:B1 0.000313493
55 *108:18 *1055:B1 3.69573e-05
56 *112:57 *141:36 0.000357001
57 *115:12 *141:36 0.000344047
58 *118:59 *141:36 0.000141941
59 *121:85 *141:36 0.000127997
60 *126:18 *141:36 0.000806056
61 *128:44 *1055:B1 4.10399e-05
62 *128:44 *141:14 7.24392e-05
63 *131:36 *141:36 0.000387299
*RES
1 *1002:X *141:14 26.1795 
2 *141:14 *141:18 6.22687 
3 *141:18 *141:36 41.7397 
4 *141:36 *1006:A1 9.3 
5 *141:18 *1009:B1 22.8197 
6 *141:14 *1055:B1 45.1955 
*END

*D_NET *142 0.00385735
*CONN
*I *1004:C1 I *D sky130_fd_sc_hd__a211o_1
*I *1003:X O *D sky130_fd_sc_hd__and4b_1
*CAP
1 *1004:C1 0.000555512
2 *1003:X 0.000555512
3 *1004:C1 *1004:A1 5.33005e-05
4 *1004:C1 *200:30 0.000183783
5 *1004:C1 *238:70 0.000185528
6 *1004:C1 *247:46 8.93791e-05
7 *1004:A2 *1004:C1 0.000293639
8 *1041:S *1004:C1 0.000269665
9 *1096:A *1004:C1 0.00127295
10 *71:20 *1004:C1 8.43535e-06
11 *88:70 *1004:C1 0.00034127
12 *110:78 *1004:C1 3.10885e-05
13 *112:41 *1004:C1 1.72894e-05
*RES
1 *1003:X *1004:C1 44.5464 
*END

*D_NET *143 0.00549147
*CONN
*I *1006:A2 I *D sky130_fd_sc_hd__a31oi_4
*I *1004:X O *D sky130_fd_sc_hd__a211o_1
*CAP
1 *1006:A2 0
2 *1004:X 0.0011835
3 *143:16 0.0011835
4 *143:16 *197:46 0.000189419
5 *143:16 *218:16 0.000275415
6 *1096:A *143:16 0.000634786
7 *1125:A *143:16 0.000125236
8 *73:16 *143:16 0.00123468
9 *101:8 *143:16 0.000512166
10 *101:26 *143:16 0.000152772
*RES
1 *1004:X *143:16 43.8893 
2 *143:16 *1006:A2 9.3 
*END

*D_NET *144 0.00718554
*CONN
*I *1006:A3 I *D sky130_fd_sc_hd__a31oi_4
*I *1005:X O *D sky130_fd_sc_hd__or3_2
*CAP
1 *1006:A3 0.000268777
2 *1005:X 0.00128828
3 *144:20 0.00155706
4 *1006:A3 *976:A1 0.000621812
5 *1006:A3 *1195:A 5.38265e-05
6 *144:20 *1005:B 0.000197939
7 *144:20 *1191:A 5.33005e-05
8 *144:20 *195:12 5.39464e-05
9 *144:20 *224:12 0.000743844
10 *144:20 *240:14 0
11 *144:20 *250:78 0
12 *144:20 *260:36 0.000313343
13 *976:A2 *1006:A3 1.21258e-05
14 *976:B1 *1006:A3 1.95808e-05
15 *976:B1 *144:20 2.04866e-05
16 *976:C1 *1006:A3 0.000440861
17 *988:B *1006:A3 0
18 *992:A1 *144:20 0.00010922
19 *1153:A *144:20 0.000834708
20 *1182:RESET_B *144:20 1.721e-05
21 *64:12 *144:20 5.7836e-06
22 *115:12 *1006:A3 0.0003085
23 *121:50 *144:20 0.000264946
*RES
1 *1005:X *144:20 49.1214 
2 *144:20 *1006:A3 27.4964 
*END

*D_NET *145 0.0219972
*CONN
*I *1017:A I *D sky130_fd_sc_hd__and2_1
*I *1015:A I *D sky130_fd_sc_hd__and3_2
*I *1058:C I *D sky130_fd_sc_hd__and4_1
*I *1043:A I *D sky130_fd_sc_hd__xnor2_2
*I *1006:Y O *D sky130_fd_sc_hd__a31oi_4
*CAP
1 *1017:A 0
2 *1015:A 0.00114692
3 *1058:C 0.000199105
4 *1043:A 0.000644542
5 *1006:Y 1.42311e-05
6 *145:75 0.00275684
7 *145:47 0.00168667
8 *145:41 0.00132618
9 *145:8 0.00170911
10 *1015:A *1089:A0 0.00039512
11 *1015:A *1158:CLK 2.24718e-05
12 *1015:A *146:26 0
13 *1015:A *154:18 0
14 *1015:A *235:86 0.000414281
15 *1043:A *1043:B 0.000918805
16 *1043:A *1052:A1 0.000875621
17 *1043:A *239:76 0.000147271
18 *1058:C *1097:B2 0.000180079
19 *145:41 *975:B 0.000535929
20 *145:41 *1182:CLK 5.33005e-05
21 *145:41 *151:27 1.25275e-05
22 *145:41 *209:59 7.14469e-05
23 *145:41 *227:51 5.19522e-06
24 *145:41 *234:65 1.64621e-05
25 *145:41 *235:31 4.47218e-05
26 *145:41 *239:76 7.23004e-05
27 *145:41 *250:78 0.000888279
28 *145:47 *1003:C 0.000117856
29 *145:47 *1018:A 6.05161e-06
30 *145:47 *258:22 0
31 *145:75 *1003:C 9.41642e-05
32 *145:75 *1039:A1 7.61281e-05
33 *145:75 *1089:A0 0.000179795
34 *145:75 *1128:A0 0.000172898
35 *145:75 *1187:A 1.76616e-05
36 *145:75 *151:27 9.15842e-06
37 *145:75 *171:20 0.000608795
38 *145:75 *173:38 0.000172889
39 *145:75 *174:73 6.87321e-05
40 *145:75 *192:20 0.000333868
41 *145:75 *209:59 0
42 *145:75 *228:24 0.000168255
43 *145:75 *244:12 0.000303908
44 *145:75 *248:23 8.6229e-06
45 *145:75 *264:10 0.000136388
46 *952:D *1015:A 0.000515766
47 *959:A1 *1058:C 0.000135028
48 *965:A *1015:A 0.000363073
49 *965:A *145:75 0.000573959
50 *988:B *1043:A 2.93922e-05
51 *1008:A2 *1015:A 0
52 *1058:B *1058:C 5.33005e-05
53 *1133:A *145:41 0.000477109
54 *1148:S *1015:A 0.000121767
55 *1172:D *145:41 1.13883e-05
56 *1182:D *145:41 5.42547e-05
57 *21:34 *145:75 0.000486953
58 *57:50 *145:41 0.000204855
59 *77:131 *145:41 0.000599216
60 *81:92 *145:41 0.000240284
61 *82:54 *145:41 0.000430308
62 *88:54 *145:75 0.000170436
63 *97:43 *1015:A 1.76569e-05
64 *98:72 *1058:C 0.000152823
65 *98:79 *1058:C 3.97677e-05
66 *115:12 *145:8 2.85321e-05
67 *118:24 *1043:A 4.41457e-05
68 *118:24 *145:41 3.47641e-06
69 *120:76 *145:75 0.000490489
70 *127:31 *1043:A 0
71 *127:31 *145:41 0
72 *141:36 *145:8 5.50052e-05
73 *141:36 *145:41 8.56143e-05
*RES
1 *1006:Y *145:8 14.3357 
2 *145:8 *1043:A 31.05 
3 *145:8 *145:41 49.8214 
4 *145:41 *145:47 4.16071 
5 *145:47 *145:75 47.8859 
6 *145:75 *1058:C 18.4607 
7 *145:75 *1015:A 43.3893 
8 *145:47 *1017:A 9.3 
*END

*D_NET *146 0.0137593
*CONN
*I *1008:C1 I *D sky130_fd_sc_hd__a211o_1
*I *1007:X O *D sky130_fd_sc_hd__and4b_1
*CAP
1 *1008:C1 0.00241192
2 *1007:X 0.0023521
3 *146:26 0.00476402
4 *1008:C1 *1008:A1 3.4846e-06
5 *1008:C1 *153:45 1.99099e-05
6 *1008:C1 *168:51 0
7 *1008:C1 *207:38 0.000112796
8 *146:26 *1039:B1 0.000104453
9 *146:26 *1055:A2 0
10 *146:26 *1089:A0 6.38111e-05
11 *146:26 *1128:A0 0.000218326
12 *146:26 *185:55 1.63885e-05
13 *146:26 *211:18 0.000102146
14 *146:26 *226:30 0.000398266
15 *146:26 *228:24 0.000211393
16 *146:26 *234:148 0.000229649
17 *146:26 *234:163 4.44929e-05
18 *146:26 *247:46 9.54798e-06
19 *146:26 *247:71 0.00107157
20 *1009:B1 *146:26 1.90936e-05
21 *1015:A *146:26 0
22 *1107:S *146:26 5.88435e-05
23 *21:34 *146:26 6.99373e-05
24 *62:14 *146:26 7.25293e-05
25 *77:43 *146:26 3.0263e-05
26 *83:20 *146:26 0
27 *90:106 *146:26 0.000230185
28 *107:12 *146:26 4.57244e-05
29 *122:37 *146:26 6.32065e-05
30 *141:18 *146:26 0.00103523
*RES
1 *1007:X *146:26 49.7465 
2 *146:26 *1008:C1 46.7643 
*END

*D_NET *147 0.0247906
*CONN
*I *1011:A1 I *D sky130_fd_sc_hd__a21oi_4
*I *1008:X O *D sky130_fd_sc_hd__a211o_1
*CAP
1 *1011:A1 9.27503e-05
2 *1008:X 0.00108632
3 *147:24 0.00277247
4 *147:16 0.00324692
5 *147:8 0.00165352
6 *1011:A1 *1011:A2 0.000199563
7 *1011:A1 *166:14 0.000120781
8 *1011:A1 *269:26 3.55573e-05
9 *147:8 *152:42 5.39679e-06
10 *147:16 *152:42 0.00156381
11 *147:16 *158:12 0.000406844
12 *147:16 *168:55 0.00117074
13 *147:16 *187:12 6.05161e-06
14 *147:16 *189:34 0.000359217
15 *147:16 *211:30 6.37883e-06
16 *147:24 *1016:B2 0.000129481
17 *147:24 *1044:B 0.00215269
18 *147:24 *1052:A3 5.12801e-05
19 *147:24 *1101:B 0.000112437
20 *147:24 *152:30 0.00207472
21 *147:24 *168:55 0.00039257
22 *147:24 *183:34 0.000441368
23 *147:24 *187:20 8.95918e-06
24 *147:24 *205:57 0.000103646
25 *147:24 *221:43 2.72835e-05
26 *1185:A *147:24 0.00182937
27 *1189:A *147:16 1.94945e-05
28 *27:18 *147:24 0.00117869
29 *67:16 *147:24 0.0027825
30 *70:32 *147:8 0.000132456
31 *80:38 *147:24 0.000515582
32 *82:66 *147:24 0.000111763
*RES
1 *1008:X *147:8 26.6571 
2 *147:8 *147:16 36.6964 
3 *147:16 *147:24 48.191 
4 *147:24 *1011:A1 16.5054 
*END

*D_NET *148 0.0072616
*CONN
*I *1011:A2 I *D sky130_fd_sc_hd__a21oi_4
*I *1009:X O *D sky130_fd_sc_hd__o21a_1
*CAP
1 *1011:A2 0.00148628
2 *1009:X 0.000288317
3 *148:8 0.0017746
4 *1011:A2 *1003:C 0.00011968
5 *1011:A2 *155:34 2.59119e-05
6 *1011:A2 *155:63 0.000109755
7 *1011:A2 *166:14 9.93918e-06
8 *1011:A2 *171:40 7.47767e-05
9 *1011:A2 *191:32 5.03772e-05
10 *1011:A2 *201:52 4.119e-05
11 *1011:A2 *258:24 0.000172839
12 *1011:A2 *258:34 0.000455505
13 *1011:A2 *259:50 0.000353161
14 *1011:A2 *269:26 5.02751e-05
15 *148:8 *192:20 0.000305191
16 *965:A *148:8 1.10868e-05
17 *1011:A1 *1011:A2 0.000199563
18 *1166:D *1011:A2 0.000606304
19 *1168:D *1011:A2 0.000162389
20 *31:28 *1011:A2 4.08508e-05
21 *49:45 *1011:A2 0.000661186
22 *49:61 *148:8 5.49544e-05
23 *53:14 *1011:A2 0.00010096
24 *93:53 *1011:A2 0.000106505
*RES
1 *1009:X *148:8 17.6214 
2 *148:8 *1011:A2 48.2643 
*END

*D_NET *149 0.00960807
*CONN
*I *1011:B1 I *D sky130_fd_sc_hd__a21oi_4
*I *1010:X O *D sky130_fd_sc_hd__and2b_1
*CAP
1 *1011:B1 0.000689786
2 *1010:X 0.00189705
3 *149:18 0.00258684
4 *1011:B1 *957:A 5.04841e-06
5 *1011:B1 *150:10 0.000140736
6 *1011:B1 *150:44 7.80454e-05
7 *1011:B1 *157:32 9.61273e-05
8 *1011:B1 *234:31 4.5083e-05
9 *1011:B1 *247:18 2.39153e-05
10 *1011:B1 *258:34 0
11 *149:18 *1052:A1 0.000560626
12 *149:18 *248:41 0.000419305
13 *149:18 *257:49 0.000526317
14 *937:A *149:18 6.6366e-05
15 *957:B *1011:B1 7.48927e-06
16 *1113:S *1011:B1 0.000154071
17 *1172:D *1011:B1 0.000102589
18 *56:22 *149:18 9.2195e-05
19 *59:18 *1011:B1 0.000428873
20 *60:14 *1011:B1 0.00019331
21 *83:48 *149:18 0.00139593
22 *118:24 *1011:B1 9.83704e-05
*RES
1 *1010:X *149:18 47.9429 
2 *149:18 *1011:B1 43.6929 
*END

*D_NET *150 0.0368549
*CONN
*I *1029:A2 I *D sky130_fd_sc_hd__a21boi_4
*I *1058:D I *D sky130_fd_sc_hd__and4_1
*I *1042:A3 I *D sky130_fd_sc_hd__a31o_1
*I *1012:A I *D sky130_fd_sc_hd__buf_1
*I *1028:B1 I *D sky130_fd_sc_hd__a211o_1
*I *1011:Y O *D sky130_fd_sc_hd__a21oi_4
*CAP
1 *1029:A2 0
2 *1058:D 0.000798809
3 *1042:A3 0.000131201
4 *1012:A 0
5 *1028:B1 0.0012003
6 *1011:Y 0.000258502
7 *150:60 0.00165682
8 *150:50 0.00104579
9 *150:48 0.000937762
10 *150:44 0.00265496
11 *150:14 0.00153649
12 *150:10 0.00263086
13 *1028:B1 *151:10 0.000537065
14 *1028:B1 *157:32 8.44234e-05
15 *1028:B1 *209:18 0.000616547
16 *1028:B1 *220:24 7.54847e-05
17 *1028:B1 *255:20 0.00011471
18 *1042:A3 *188:14 6.09682e-05
19 *1042:A3 *256:22 9.58126e-05
20 *1058:D *1078:A3 0
21 *1058:D *1095:A2 1.79457e-05
22 *1058:D *1097:B2 0.000140856
23 *1058:D *155:98 5.83511e-05
24 *1058:D *197:16 0.000354316
25 *1058:D *223:18 0.00050728
26 *1058:D *256:22 0
27 *150:10 *191:32 5.71472e-05
28 *150:10 *258:34 6.96441e-05
29 *150:44 *184:14 0.0039617
30 *150:44 *216:79 4.19682e-05
31 *150:48 *182:41 0.000236855
32 *150:48 *216:81 0.00333426
33 *150:50 *1029:A1 0.000315158
34 *150:60 *1029:A1 9.60939e-05
35 *150:60 *188:14 0.000855667
36 *150:60 *224:12 0.00018887
37 seg[4] *150:44 0.000220654
38 *958:B *150:60 0.000351985
39 *967:A *150:60 0.000364076
40 *980:A *150:60 9.75679e-05
41 *982:B *1042:A3 0.000304311
42 *1011:B1 *150:10 0.000140736
43 *1011:B1 *150:44 7.80454e-05
44 *1016:A2 *150:44 0.000222053
45 *1024:A *1028:B1 5.66971e-05
46 *1024:A *150:14 0.00174584
47 *1028:A1 *1028:B1 2.10812e-05
48 *1028:C1 *1028:B1 2.88667e-05
49 *1042:A1 *1058:D 0.000105289
50 *1113:S *150:14 0.000128453
51 *1130:C *1028:B1 0.000466893
52 *26:28 *150:44 0.000375571
53 *28:32 *150:48 0.00217107
54 *31:28 *150:10 5.05056e-05
55 *31:28 *150:44 0.000193534
56 *48:36 *150:44 0.000198183
57 *49:39 *1028:B1 5.50052e-05
58 *49:39 *150:14 0.00150768
59 *78:84 *1058:D 4.06777e-05
60 *82:79 *1028:B1 6.96575e-05
61 *84:32 *1058:D 0.000118573
62 *88:70 *1042:A3 7.48005e-05
63 *98:79 *1058:D 4.60153e-05
64 *118:24 *150:44 0.000930229
65 *119:30 *1042:A3 0.00018013
66 *119:30 *150:60 0.0010403
67 *120:39 *1028:B1 0.000266554
68 *122:62 *1058:D 0.00026665
69 *135:14 *150:48 0.000264615
*RES
1 *1011:Y *150:10 18.7107 
2 *150:10 *150:14 21.4643 
3 *150:14 *1028:B1 42.0679 
4 *150:14 *1012:A 9.3 
5 *150:10 *150:44 16.4908 
6 *150:44 *150:48 45.4554 
7 *150:48 *150:50 6.28571 
8 *150:50 *150:60 32 
9 *150:60 *1042:A3 13.5321 
10 *150:60 *1058:D 41.9964 
11 *150:50 *1029:A2 9.3 
*END

*D_NET *151 0.00994455
*CONN
*I *1017:B I *D sky130_fd_sc_hd__and2_1
*I *1013:A I *D sky130_fd_sc_hd__buf_1
*I *1012:X O *D sky130_fd_sc_hd__buf_1
*CAP
1 *1017:B 0
2 *1013:A 0.000241191
3 *1012:X 0.000278515
4 *151:27 0.00124618
5 *151:10 0.00176589
6 *1013:A *152:22 4.82865e-05
7 *1013:A *155:34 0.000135028
8 *1013:A *209:18 0.00060052
9 *151:10 *220:24 1.44519e-05
10 *151:27 *155:34 0.00153221
11 *151:27 *157:18 0.000855475
12 *151:27 *209:18 9.60939e-05
13 *151:27 *209:59 0.000119502
14 *151:27 *244:12 1.37164e-05
15 *1028:B1 *151:10 0.000537065
16 *33:16 *151:27 0.00030196
17 *36:22 *151:27 3.68898e-05
18 *66:20 *1013:A 2.2351e-05
19 *82:54 *151:27 0.000227437
20 *82:79 *151:10 0.000583358
21 *96:28 *151:27 0.000872922
22 *100:65 *151:27 0.000231947
23 *138:24 *151:27 0.000161089
24 *141:36 *151:27 7.87026e-07
25 *145:41 *151:27 1.25275e-05
26 *145:75 *151:27 9.15842e-06
*RES
1 *1012:X *151:10 26.3179 
2 *151:10 *1013:A 15.6036 
3 *151:10 *151:27 41.9286 
4 *151:27 *1017:B 9.3 
*END

*D_NET *152 0.0223084
*CONN
*I *1015:B I *D sky130_fd_sc_hd__and3_2
*I *1013:X O *D sky130_fd_sc_hd__buf_1
*CAP
1 *1015:B 0.00117318
2 *1013:X 0.00149057
3 *152:42 0.00225835
4 *152:30 0.00158215
5 *152:22 0.00198755
6 *1015:B *153:45 0.000262846
7 *152:22 *1076:A3 0.00120077
8 *152:22 *209:18 0.000182939
9 *152:30 *168:55 0.00250499
10 *152:30 *189:34 0.00047066
11 *152:42 *1008:A1 0.000610035
12 *152:42 *1142:B 0.000530832
13 *152:42 *153:45 0
14 *152:42 *211:18 0.000292543
15 *970:B *152:22 0.000179435
16 *1008:A2 *1015:B 1.00073e-05
17 *1013:A *152:22 4.82865e-05
18 *1137:A *152:42 0.00051463
19 *1138:B *152:22 0.00018077
20 *1142:A *152:42 1.59373e-05
21 *1189:A *152:42 8.27694e-05
22 *67:16 *152:30 0.000417572
23 *70:32 *152:42 0.000552154
24 *80:38 *152:30 0.000132928
25 *90:106 *1015:B 0.00179974
26 *104:22 *152:22 0.000104876
27 *109:26 *152:22 7.7943e-05
28 *147:8 *152:42 5.39679e-06
29 *147:16 *152:42 0.00156381
30 *147:24 *152:30 0.00207472
*RES
1 *1013:X *152:22 37.9786 
2 *152:22 *152:30 41.5536 
3 *152:30 *152:42 48.4821 
4 *152:42 *1015:B 33.675 
*END

*D_NET *153 0.0178507
*CONN
*I *1015:C I *D sky130_fd_sc_hd__and3_2
*I *1019:B I *D sky130_fd_sc_hd__nand2_1
*I *1014:Y O *D sky130_fd_sc_hd__nor2_1
*CAP
1 *1015:C 0
2 *1019:B 0.000580966
3 *1014:Y 0.000275899
4 *153:45 0.00158541
5 *153:18 0.0016152
6 *153:6 0.00289553
7 *1019:B *1076:A1 0
8 *1019:B *1091:A1 5.50052e-05
9 *1019:B *1130:B 1.00887e-05
10 *1019:B *1179:CLK 0.000375733
11 *1019:B *205:57 0.000370338
12 *1019:B *220:24 2.59355e-05
13 *1019:B *233:51 0.000327921
14 *1019:B *233:53 0.000240724
15 *1019:B *249:33 5.72239e-05
16 *153:6 *271:43 0.000176869
17 *153:18 *1098:A1 0.000238783
18 *153:18 *1142:B 0.000673981
19 *153:18 *158:20 0.000260152
20 *153:18 *190:30 2.02339e-05
21 *153:18 *239:10 0.000438778
22 *153:45 *207:38 0.0001774
23 *153:45 *271:43 0.000560888
24 *1008:A2 *153:45 0.00210744
25 *1008:C1 *153:45 1.99099e-05
26 *1015:B *153:45 0.000262846
27 *1051:A0 *153:18 0.000636887
28 *1130:C *1019:B 0
29 *1145:A *153:18 4.97236e-05
30 *1175:D *1019:B 7.74068e-05
31 *1177:D *1019:B 0.000187525
32 *22:12 *153:18 7.35062e-05
33 *28:16 *1019:B 0.000116032
34 *70:32 *153:45 6.27272e-06
35 *72:12 *153:18 0.000368647
36 *90:106 *153:45 0.000921549
37 *109:26 *1019:B 0.000981681
38 *109:40 *153:18 0.0010782
39 *130:39 *153:45 0
40 *152:42 *153:45 0
*RES
1 *1014:Y *153:6 12.7107 
2 *153:6 *153:18 46.0893 
3 *153:18 *1019:B 43.3179 
4 *153:6 *153:45 48.3929 
5 *153:45 *1015:C 9.3 
*END

*D_NET *154 0.0219095
*CONN
*I *1052:B1 I *D sky130_fd_sc_hd__a32o_4
*I *1016:B2 I *D sky130_fd_sc_hd__a22o_4
*I *1015:X O *D sky130_fd_sc_hd__and3_2
*CAP
1 *1052:B1 0.000613802
2 *1016:B2 0.00215748
3 *1015:X 0.00398284
4 *154:18 0.00675412
5 *1016:B2 *1052:A3 0.000877514
6 *1016:B2 *163:18 0.000296024
7 *1016:B2 *184:14 0.000114862
8 *1052:B1 *1052:A3 0.00124689
9 *1052:B1 *184:14 0.000370196
10 *1052:B1 *198:18 4.43299e-05
11 *154:18 *1075:A1 3.05988e-05
12 *154:18 *1085:S 0.000382132
13 *154:18 *1098:A1 2.48858e-05
14 *154:18 *200:30 4.73891e-05
15 *154:18 *235:86 8.75061e-05
16 *154:18 *236:194 3.03155e-05
17 *956:A *1016:B2 0.0001588
18 *990:A *154:18 0.00196245
19 *1000:B1 *154:18 3.2444e-05
20 *1008:A2 *154:18 0
21 *1015:A *154:18 0
22 *1016:A2 *1016:B2 9.60337e-06
23 *1163:D *1016:B2 6.71794e-05
24 *26:28 *1016:B2 0.00039342
25 *27:18 *1016:B2 0.000166664
26 *34:28 *154:18 1.708e-05
27 *83:20 *154:18 0
28 *100:32 *154:18 0.00144805
29 *110:53 *154:18 0.000377848
30 *116:82 *154:18 4.02701e-05
31 *134:33 *1016:B2 4.53299e-05
32 *147:24 *1016:B2 0.000129481
*RES
1 *1015:X *154:18 40.9589 
2 *154:18 *1016:B2 27.2152 
3 *154:18 *1052:B1 19.8913 
*END

*D_NET *155 0.0358674
*CONN
*I *1122:A0 I *D sky130_fd_sc_hd__mux2_1
*I *1036:A I *D sky130_fd_sc_hd__nor2_2
*I *1079:A1 I *D sky130_fd_sc_hd__a211o_1
*I *1073:A I *D sky130_fd_sc_hd__inv_2
*I *1146:A1 I *D sky130_fd_sc_hd__mux2_1
*I *1087:A1 I *D sky130_fd_sc_hd__mux2_1
*I *1070:A1 I *D sky130_fd_sc_hd__a21oi_2
*I *1063:A I *D sky130_fd_sc_hd__nor2_1
*I *1109:A1 I *D sky130_fd_sc_hd__mux2_1
*I *1016:X O *D sky130_fd_sc_hd__a22o_4
*CAP
1 *1122:A0 9.53702e-05
2 *1036:A 3.04135e-05
3 *1079:A1 4.90577e-05
4 *1073:A 0.000342041
5 *1146:A1 0.000726139
6 *1087:A1 0.000603821
7 *1070:A1 0
8 *1063:A 3.9104e-05
9 *1109:A1 0.00010375
10 *1016:X 0.00106831
11 *155:143 0.00116573
12 *155:133 0.00137942
13 *155:98 0.00160012
14 *155:82 0.0027199
15 *155:63 0.00211322
16 *155:34 0.00168662
17 *155:26 0.00131167
18 *155:22 0.00139476
19 *1036:A *174:124 5.33005e-05
20 *1063:A *1035:B1 1.34631e-05
21 *1063:A *1063:B 3.08382e-06
22 *1063:A *1074:B1 3.63423e-05
23 *1073:A *1023:A1 0.00010877
24 *1073:A *1079:B1 1.29677e-05
25 *1073:A *1079:C1 8.47484e-06
26 *1079:A1 *1079:C1 1.31839e-05
27 *1087:A1 *1089:A1 0.000228876
28 *1087:A1 *1107:A0 0.000407187
29 *1122:A0 *1091:A1 0.000137561
30 *1146:A1 *945:A1 5.54799e-05
31 *1146:A1 *1069:A 0.000134047
32 *1146:A1 *174:6 0.000188031
33 *1146:A1 *193:10 0.000100031
34 *155:22 *1091:A1 0.000349777
35 *155:34 *269:26 0.000131473
36 *155:63 *1128:A0 0.000192909
37 *155:63 *228:24 0.000211173
38 *155:82 *1035:B1 1.35455e-05
39 *155:82 *1074:B1 0.000851688
40 *155:82 *1100:B 8.20064e-05
41 *155:82 *173:38 0.000268558
42 *155:82 *174:6 0.000141662
43 *155:82 *237:45 8.25697e-05
44 *155:82 *237:53 0.00039287
45 *155:98 *1062:A2 0.000282179
46 *155:98 *1097:A1 7.74068e-05
47 *155:98 *1107:A0 0.000318999
48 *155:98 *159:18 0.000205898
49 *155:98 *196:16 6.30931e-05
50 *155:98 *267:14 0.000211645
51 *155:133 *167:10 0.000140861
52 *155:133 *255:71 8.66208e-05
53 *155:143 *1079:C1 2.42376e-05
54 *155:143 *162:28 0.000363558
55 *155:143 *167:10 5.89599e-05
56 *155:143 *212:32 0.000137444
57 *938:A *155:22 3.19679e-05
58 *981:B1 *155:63 9.43514e-06
59 *1011:A2 *155:34 2.59119e-05
60 *1011:A2 *155:63 0.000109755
61 *1013:A *155:34 0.000135028
62 *1027:B *155:34 1.6162e-05
63 *1028:A1 *1079:A1 0
64 *1028:A1 *155:143 3.63775e-05
65 *1031:B *155:98 9.21418e-06
66 *1058:D *155:98 5.83511e-05
67 *1111:S *155:133 0
68 *1114:A *155:22 9.05192e-05
69 *1121:A *1087:A1 0.000908764
70 *1124:S *155:22 0.00105552
71 *1146:S *1146:A1 0.0001219
72 *1166:D *155:63 0.000218845
73 *1177:D *155:63 9.00864e-05
74 *29:20 *155:133 0.000117673
75 *33:16 *155:34 0.000136958
76 *43:26 *155:63 0.00105254
77 *49:39 *155:26 0.000184512
78 *49:45 *155:34 0.000188244
79 *49:61 *155:34 7.3897e-05
80 *49:61 *155:63 0.000484693
81 *57:87 *155:26 0.000339253
82 *57:87 *155:133 0.000572838
83 *63:30 *155:63 0.000165782
84 *65:8 *1087:A1 0.000654058
85 *66:20 *155:34 0.000817932
86 *71:43 *155:63 1.61405e-05
87 *73:16 *1146:A1 5.33005e-05
88 *77:43 *1063:A 1.32056e-05
89 *77:43 *155:82 0.000272767
90 *78:84 *155:98 2.59169e-05
91 *78:99 *1087:A1 0.000532935
92 *78:99 *155:98 0.000182634
93 *80:38 *155:98 0.000132938
94 *82:79 *155:26 3.06094e-05
95 *83:30 *155:63 0.000304664
96 *84:26 *1087:A1 0
97 *84:32 *155:98 6.4542e-05
98 *84:38 *155:98 0.000272299
99 *84:81 *155:63 0.000284956
100 *84:89 *155:22 3.14137e-05
101 *85:20 *155:26 0.000101721
102 *85:20 *155:133 3.2998e-05
103 *93:53 *155:63 4.00349e-05
104 *95:53 *155:34 0.000355182
105 *102:16 *155:143 6.35224e-05
106 *106:95 *155:143 0.000268646
107 *112:18 *1146:A1 9.75171e-05
108 *120:76 *155:63 0.000165362
109 *122:62 *155:98 0.000340995
110 *124:38 *1109:A1 0.000137983
111 *136:24 *155:143 5.2563e-05
112 *137:20 *155:133 0.000134783
113 *151:27 *155:34 0.00153221
*RES
1 *1016:X *155:22 34.9429 
2 *155:22 *155:26 10.0893 
3 *155:26 *155:34 28.6071 
4 *155:34 *1109:A1 15.1571 
5 *155:34 *155:63 28.5928 
6 *155:63 *1063:A 10.2643 
7 *155:63 *155:82 27.0179 
8 *155:82 *155:98 34.2143 
9 *155:98 *1070:A1 13.8 
10 *155:98 *1087:A1 32.425 
11 *155:82 *1146:A1 28.5143 
12 *155:26 *155:133 12.5714 
13 *155:133 *155:143 18.125 
14 *155:143 *1073:A 14.675 
15 *155:143 *1079:A1 10.3045 
16 *155:133 *1036:A 14.3357 
17 *155:22 *1122:A0 10.6571 
*END

*D_NET *156 0.00243977
*CONN
*I *1018:A I *D sky130_fd_sc_hd__buf_1
*I *1017:X O *D sky130_fd_sc_hd__and2_1
*CAP
1 *1018:A 0.000474052
2 *1017:X 0.000474052
3 *1018:A *1003:C 0.000572164
4 *1018:A *1088:A 0.000610801
5 *1018:A *1117:D_N 5.33005e-05
6 *1018:A *198:18 9.23246e-05
7 *1018:A *234:16 5.20298e-05
8 *1117:A *1018:A 6.4974e-06
9 *21:34 *1018:A 3.27955e-05
10 *24:26 *1018:A 6.57032e-05
11 *145:47 *1018:A 6.05161e-06
*RES
1 *1017:X *1018:A 40.3679 
*END

*D_NET *157 0.0149661
*CONN
*I *1019:A I *D sky130_fd_sc_hd__nand2_1
*I *1018:X O *D sky130_fd_sc_hd__buf_1
*CAP
1 *1019:A 0
2 *1018:X 0.00141901
3 *157:32 0.00101496
4 *157:18 0.00243397
5 *157:18 *1003:A_N 0.000696699
6 *157:18 *236:73 4.79453e-05
7 *157:18 *244:12 0.000991379
8 *157:18 *247:18 8.99942e-05
9 *157:18 *257:49 4.15526e-05
10 *157:18 *269:26 0.000281409
11 *157:32 *1046:B 0.000230662
12 *157:32 *1091:A1 0.00174598
13 *157:32 *1122:A1 0.00035869
14 *157:32 *220:24 0.000714919
15 *157:32 *255:20 2.5448e-05
16 *1011:B1 *157:32 9.61273e-05
17 *1028:B1 *157:32 8.44234e-05
18 *1124:S *157:32 0.000350519
19 *21:34 *157:18 0.000162899
20 *41:20 *157:18 4.00349e-05
21 *59:18 *157:32 0.000376373
22 *60:14 *157:32 0.00192573
23 *81:72 *157:18 0.000274889
24 *81:92 *157:18 0.000231774
25 *82:54 *157:18 0.00031476
26 *84:81 *157:18 6.3377e-05
27 *100:65 *157:18 3.98934e-05
28 *116:98 *157:32 1.06773e-05
29 *141:36 *157:18 4.65519e-05
30 *151:27 *157:18 0.000855475
*RES
1 *1018:X *157:18 43.9872 
2 *157:18 *157:32 47.2857 
3 *157:32 *1019:A 9.3 
*END

*D_NET *158 0.0215735
*CONN
*I *1035:A1_N I *D sky130_fd_sc_hd__a2bb2o_4
*I *1019:Y O *D sky130_fd_sc_hd__nand2_1
*CAP
1 *1035:A1_N 0.00146364
2 *1019:Y 0.00064806
3 *158:20 0.00308758
4 *158:12 0.00211428
5 *158:8 0.0011384
6 *1035:A1_N *1038:B 9.53399e-05
7 *1035:A1_N *1048:A 0.000491281
8 *1035:A1_N *178:71 1.29739e-05
9 *1035:A1_N *198:28 7.78187e-05
10 *1035:A1_N *237:53 1.33434e-05
11 *1035:A1_N *242:24 0.000133503
12 *1035:A1_N *245:14 0.000327537
13 *158:8 *1091:A1 0.000565113
14 *158:12 *168:55 1.50087e-05
15 *158:12 *173:38 2.14378e-05
16 *158:12 *187:20 0.00239875
17 *158:12 *211:30 0.00101457
18 *158:12 *229:14 0.00177176
19 *158:20 *1094:A1 0.00174352
20 *158:20 *1140:A 0.0005642
21 *158:20 *198:54 1.35553e-05
22 *158:20 *222:30 0.000440529
23 *158:20 *234:112 8.60907e-05
24 *43:36 *158:20 0.000257134
25 *67:16 *158:20 5.33005e-05
26 *70:32 *158:12 0.000512673
27 *99:43 *158:20 2.06178e-05
28 *100:26 *1035:A1_N 6.14836e-06
29 *116:60 *1035:A1_N 0.00060891
30 *116:82 *1035:A1_N 0.000449822
31 *123:22 *158:20 0.000541328
32 *129:26 *158:20 0.000218313
33 *147:16 *158:12 0.000406844
34 *153:18 *158:20 0.000260152
*RES
1 *1019:Y *158:8 22.1393 
2 *158:8 *158:12 39.5357 
3 *158:12 *158:20 47.1868 
4 *158:20 *1035:A1_N 22.6135 
*END

*D_NET *159 0.00551536
*CONN
*I *1022:B1 I *D sky130_fd_sc_hd__a2bb2o_2
*I *1020:Y O *D sky130_fd_sc_hd__nand2_1
*CAP
1 *1022:B1 0
2 *1020:Y 0.00100755
3 *159:18 0.00100755
4 *159:18 *1095:A1 3.97677e-05
5 *159:18 *1095:A2 0.000140088
6 *159:18 *1098:B1 0.000698279
7 *159:18 *201:80 1.77757e-05
8 *159:18 *222:30 1.50961e-05
9 *159:18 *223:18 0.000237757
10 *159:18 *267:14 4.58038e-06
11 *953:B1 *159:18 0.000103199
12 *959:A1 *159:18 2.43875e-05
13 *1097:A2 *159:18 4.09704e-05
14 *84:26 *159:18 0.000375027
15 *84:32 *159:18 0.000275147
16 *110:70 *159:18 0.0011851
17 *120:76 *159:18 0.000137179
18 *155:98 *159:18 0.000205898
*RES
1 *1020:Y *159:18 43.3357 
2 *159:18 *1022:B1 9.3 
*END

*D_NET *160 0.00981476
*CONN
*I *1022:B2 I *D sky130_fd_sc_hd__a2bb2o_2
*I *1021:Y O *D sky130_fd_sc_hd__a21oi_1
*CAP
1 *1022:B2 0
2 *1021:Y 0.00248612
3 *160:20 0.00248612
4 *160:20 *1097:B2 2.63501e-05
5 *160:20 *1115:A0 0.000621981
6 *160:20 *222:30 0.00172062
7 *160:20 *233:147 0.000142856
8 *160:20 *233:176 5.60463e-06
9 *160:20 *236:156 0.000109428
10 *160:20 *236:173 0.000393579
11 *160:20 *261:14 2.06112e-05
12 *949:B *160:20 0.000273453
13 *959:A1 *160:20 2.06112e-05
14 *1021:A2 *160:20 0.000287478
15 *1137:A *160:20 0.000265359
16 *1184:RESET_B *160:20 0.000407197
17 *81:28 *160:20 0.000130243
18 *102:16 *160:20 1.90936e-05
19 *110:53 *160:20 0.000143222
20 *120:76 *160:20 0.000254839
*RES
1 *1021:Y *160:20 48.241 
2 *160:20 *1022:B2 9.3 
*END

*D_NET *161 0.0198558
*CONN
*I *1049:A I *D sky130_fd_sc_hd__inv_2
*I *1038:A I *D sky130_fd_sc_hd__or2_1
*I *1023:A1 I *D sky130_fd_sc_hd__mux2_1
*I *1030:A I *D sky130_fd_sc_hd__xnor2_2
*I *1022:X O *D sky130_fd_sc_hd__a2bb2o_2
*CAP
1 *1049:A 9.10737e-05
2 *1038:A 0.000169416
3 *1023:A1 0.000496958
4 *1030:A 0
5 *1022:X 0.000206401
6 *161:68 0.000386237
7 *161:46 0.00180539
8 *161:32 0.00230235
9 *161:30 0.0024923
10 *161:12 0.00282445
11 *1023:A1 *1079:C1 3.22304e-05
12 *1023:A1 *162:28 7.1302e-05
13 *1023:A1 *210:26 0.000177291
14 *1023:A1 *228:24 2.95746e-06
15 *1023:A1 *239:8 3.69047e-06
16 *1038:A *1032:A1 0.000183069
17 *1038:A *170:35 5.05056e-05
18 *1038:A *173:38 4.04359e-05
19 *1038:A *251:16 5.49995e-05
20 *1038:A *257:14 1.48029e-05
21 *1049:A *256:22 4.73662e-05
22 *161:12 *1097:B2 3.64479e-05
23 *161:12 *170:35 0.000175892
24 *161:30 *1048:B 3.70887e-05
25 *161:30 *1079:A2 0.000151069
26 *161:30 *1079:B1 9.09007e-06
27 *161:30 *203:24 0.000418502
28 *161:30 *205:22 1.44356e-05
29 *161:30 *210:26 0.000203463
30 *161:30 *228:24 0.000410229
31 *161:30 *264:10 5.49544e-05
32 *161:46 *1082:A 0.000352036
33 *161:46 *1103:A1 9.48589e-05
34 *161:46 *1124:A0 1.32178e-05
35 *161:46 *169:16 0
36 *161:46 *205:22 0.000132675
37 *161:46 *215:14 9.93955e-05
38 *161:46 *228:24 2.00459e-05
39 *161:46 *239:56 3.81257e-05
40 *953:B1 *1038:A 3.40538e-05
41 *959:A1 *161:12 8.6229e-06
42 *965:A *161:12 9.45051e-05
43 *1023:A0 *1023:A1 7.32756e-05
44 *1028:C1 *161:46 1.77927e-05
45 *1031:A *1049:A 8.59075e-05
46 *1031:A *161:30 0.000454941
47 *1031:A *161:68 0.000207724
48 *1031:B *1049:A 6.59192e-05
49 *1032:A2 *1038:A 5.33005e-05
50 *1073:A *1023:A1 0.00010877
51 *1114:A *161:46 0.000716148
52 *1159:D *161:30 0.00160058
53 *27:18 *161:46 0.000436106
54 *45:26 *161:46 0
55 *69:14 *161:30 0.000219366
56 *80:38 *161:46 1.90936e-05
57 *90:70 *161:46 0.000292333
58 *95:18 *161:30 8.51461e-05
59 *104:22 *1023:A1 3.5626e-05
60 *104:22 *161:46 0.000141384
61 *106:80 *161:30 0.000255606
62 *120:88 *1049:A 0.000113496
63 *130:10 *161:46 0.000183069
64 *130:39 *161:30 0.000470313
65 *130:39 *161:46 1.90936e-05
66 *133:8 *161:30 0.00034887
*RES
1 *1022:X *161:12 21.4071 
2 *161:12 *161:30 49.3971 
3 *161:30 *161:32 3.41 
4 *161:32 *161:46 42.5982 
5 *161:46 *1030:A 9.3 
6 *161:32 *1023:A1 23.2732 
7 *161:12 *161:68 2.17857 
8 *161:68 *1038:A 21.9964 
9 *161:68 *1049:A 12.0321 
*END

*D_NET *162 0.00678173
*CONN
*I *1026:A0 I *D sky130_fd_sc_hd__mux2_1
*I *1023:X O *D sky130_fd_sc_hd__mux2_1
*CAP
1 *1026:A0 0.000432497
2 *1023:X 0.00150505
3 *162:28 0.00193755
4 *1026:A0 *1079:C1 0.000281066
5 *1026:A0 *210:26 0.000219971
6 *1026:A0 *236:39 0.00013921
7 *162:28 *167:10 8.50991e-05
8 *162:28 *258:22 0.000261806
9 *162:28 *265:16 7.69776e-06
10 *1023:A0 *162:28 8.60703e-05
11 *1023:A1 *162:28 7.1302e-05
12 *1028:A1 *162:28 3.69047e-06
13 *1130:C *162:28 0.000316698
14 *1183:RESET_B *162:28 0
15 *32:64 *1026:A0 9.45036e-05
16 *37:12 *162:28 0.000183582
17 *90:70 *1026:A0 0.000209843
18 *98:42 *1026:A0 9.41642e-05
19 *98:42 *162:28 1.21258e-05
20 *99:8 *1026:A0 0.000476246
21 *155:143 *162:28 0.000363558
*RES
1 *1023:X *162:28 49.8357 
2 *162:28 *1026:A0 30.4607 
*END

*D_NET *163 0.0233766
*CONN
*I *1061:A2 I *D sky130_fd_sc_hd__a21oi_1
*I *1026:A1 I *D sky130_fd_sc_hd__mux2_1
*I *1024:Y O *D sky130_fd_sc_hd__nand2_1
*CAP
1 *1061:A2 0.0024947
2 *1026:A1 0.000555447
3 *1024:Y 0.00316379
4 *163:18 0.00621394
5 *1026:A1 *950:B 0.000423909
6 *1026:A1 *1026:S 2.84109e-05
7 *1026:A1 *1140:A 5.49489e-05
8 *1026:A1 *204:28 0.000179156
9 *1026:A1 *236:33 1.98839e-05
10 *1061:A2 *1124:A1 0.00173158
11 *1061:A2 *189:34 0
12 *1061:A2 *200:30 0.000559923
13 *1061:A2 *211:18 0.000191826
14 *1061:A2 *271:24 0.000189774
15 *163:18 *1052:A3 1.90936e-05
16 *163:18 *1065:A 0.00148061
17 *163:18 *183:10 5.7903e-06
18 *163:18 *203:24 0
19 *163:18 *212:32 0.000664337
20 *163:18 *226:30 0.00019876
21 *1016:B2 *163:18 0.000296024
22 *1024:A *163:18 0.000739544
23 *1137:A *1061:A2 8.47814e-05
24 *1140:B *1026:A1 5.52238e-05
25 *1185:A *163:18 0.000111329
26 *27:18 *163:18 0.000627476
27 *31:12 *163:18 0.000139287
28 *58:12 *1061:A2 0.000127228
29 *64:32 *1026:A1 0.000106992
30 *69:14 *1026:A1 0.000720302
31 *80:38 *1061:A2 0.000149142
32 *95:18 *1026:A1 0.000176275
33 *102:16 *1026:A1 0.000105469
34 *115:42 *1026:A1 9.46333e-05
35 *130:39 *1061:A2 0
36 *136:24 *1061:A2 0.00140871
37 *136:24 *163:18 0.000258288
*RES
1 *1024:Y *163:18 41.8815 
2 *163:18 *1026:A1 33.3567 
3 *163:18 *1061:A2 30.1298 
*END

*D_NET *164 0.00460509
*CONN
*I *1026:S I *D sky130_fd_sc_hd__mux2_1
*I *1025:X O *D sky130_fd_sc_hd__a31o_1
*CAP
1 *1026:S 0.000911588
2 *1025:X 0.000911588
3 *1026:S *209:59 0.000627097
4 *1026:S *252:48 3.62331e-05
5 *1026:A1 *1026:S 2.84109e-05
6 *32:34 *1026:S 0.000135399
7 *32:64 *1026:S 8.19004e-05
8 *36:22 *1026:S 0.000192249
9 *54:12 *1026:S 0.000855249
10 *64:32 *1026:S 1.50961e-05
11 *90:70 *1026:S 2.42516e-05
12 *103:32 *1026:S 0.000299956
13 *121:85 *1026:S 0.000486072
*RES
1 *1025:X *1026:S 49.3857 
*END

*D_NET *165 0.00500608
*CONN
*I *1035:A2_N I *D sky130_fd_sc_hd__a2bb2o_4
*I *1026:X O *D sky130_fd_sc_hd__mux2_1
*CAP
1 *1035:A2_N 0.00149545
2 *1026:X 0.00149545
3 *1035:A2_N *1074:B1 9.77118e-05
4 *1035:A2_N *1100:B 4.23868e-05
5 *1035:A2_N *198:28 0
6 *1035:A2_N *234:163 0.000438176
7 *1035:A2_N *237:45 5.47265e-05
8 *1035:A2_N *237:53 1.60322e-05
9 *90:42 *1035:A2_N 0.000777431
10 *90:70 *1035:A2_N 0.00058871
*RES
1 *1026:X *1035:A2_N 48.1 
*END

*D_NET *166 0.0189821
*CONN
*I *1029:A1 I *D sky130_fd_sc_hd__a21boi_4
*I *1027:X O *D sky130_fd_sc_hd__and2_1
*CAP
1 *1029:A1 0.00100905
2 *1027:X 0.0023044
3 *166:26 0.00187283
4 *166:14 0.00316819
5 *1029:A1 *1045:A 0
6 *1029:A1 *1045:B 0.000313212
7 *1029:A1 *1050:A0 0.000470387
8 *1029:A1 *184:14 1.28478e-05
9 *1029:A1 *245:20 0.00120617
10 *166:14 *1044:B 6.65332e-05
11 *166:14 *1065:A 0.000131937
12 *166:14 *1068:A 0.00266337
13 *166:14 *190:30 0.000284111
14 *166:14 *197:46 0.00173805
15 *166:14 *216:79 0
16 *166:14 *269:26 8.6229e-06
17 *166:26 *1197:A 0
18 *166:26 *180:14 4.31391e-05
19 *166:26 *182:41 0.000510646
20 *166:26 *184:14 0.00120379
21 *166:26 *245:20 0.000198202
22 an[3] *1029:A1 2.06178e-05
23 seg[0] *1029:A1 2.06178e-05
24 seg[1] *1029:A1 2.06178e-05
25 seg[2] *166:26 9.48308e-05
26 seg[3] *166:26 0
27 seg[5] *166:14 8.08501e-05
28 seg[6] *166:14 0
29 *1011:A1 *166:14 0.000120781
30 *1011:A2 *166:14 9.93918e-06
31 *1037:A2 *166:26 0.000105874
32 *1167:D *166:14 0.00011307
33 *28:32 *166:26 0
34 *45:26 *166:14 0.000421082
35 *126:28 *166:14 0.00011307
36 *128:12 *1029:A1 0.000100823
37 *128:12 *166:26 0.000143146
38 *128:22 *1029:A1 0
39 *135:14 *1029:A1 0
40 *150:50 *1029:A1 0.000315158
41 *150:60 *1029:A1 9.60939e-05
*RES
1 *1027:X *166:14 29.8277 
2 *166:14 *166:26 32.2267 
3 *166:26 *1029:A1 42.8982 
*END

*D_NET *167 0.018779
*CONN
*I *277:DIODE I *D sky130_fd_sc_hd__diode_2
*I *1029:B1_N I *D sky130_fd_sc_hd__a21boi_4
*I *1028:X O *D sky130_fd_sc_hd__a211o_1
*CAP
1 *277:DIODE 0
2 *1029:B1_N 0.000124689
3 *1028:X 0.00135967
4 *167:38 0.00167538
5 *167:32 0.00341626
6 *167:10 0.00322523
7 *1029:B1_N *207:18 3.40128e-05
8 *1029:B1_N *256:34 0.000271026
9 *167:10 *185:55 0.00108101
10 *167:10 *255:71 0.000361027
11 *167:10 *259:50 0.000165649
12 *167:10 *270:10 0.000249588
13 *167:32 *1055:A2 0.000108497
14 *167:32 *263:18 0.000510995
15 *167:38 *1087:A0 0.000175892
16 *167:38 *185:55 0
17 *167:38 *185:63 0
18 *167:38 *193:10 3.63026e-05
19 *167:38 *207:18 0.000117424
20 *167:38 *208:8 0.000185124
21 *167:38 *263:18 0.0010135
22 *946:B *167:38 0.000117392
23 *952:D *167:32 6.66848e-05
24 *963:B *167:32 0.000764
25 *965:A *167:32 0.000260152
26 *983:A *167:32 0.000548732
27 *1107:S *167:32 9.87983e-06
28 *21:34 *167:32 9.23226e-05
29 *37:12 *167:10 0.00131798
30 *46:20 *167:32 0.000142441
31 *82:162 *1029:B1_N 3.17163e-05
32 *82:162 *167:38 0.000101586
33 *85:63 *167:38 1.02821e-05
34 *93:37 *167:32 0.000239779
35 *97:43 *167:32 0.000110151
36 *98:42 *167:10 8.61953e-05
37 *98:42 *167:32 4.74064e-05
38 *102:16 *167:10 0
39 *104:10 *167:32 1.98839e-05
40 *128:44 *167:32 0.000416185
41 *155:133 *167:10 0.000140861
42 *155:143 *167:10 5.89599e-05
43 *162:28 *167:10 8.50991e-05
*RES
1 *1028:X *167:10 46.0679 
2 *167:10 *167:32 47.2745 
3 *167:32 *167:38 26.6518 
4 *167:38 *1029:B1_N 17.1214 
5 *167:38 *277:DIODE 13.8 
*END

*D_NET *168 0.0328781
*CONN
*I *1030:B I *D sky130_fd_sc_hd__xnor2_2
*I *1038:B I *D sky130_fd_sc_hd__or2_1
*I *1029:Y O *D sky130_fd_sc_hd__a21boi_4
*CAP
1 *1030:B 0.000942094
2 *1038:B 0.000781649
3 *1029:Y 0.00122277
4 *168:55 0.00258054
5 *168:53 0.00163845
6 *168:51 0.00251838
7 *168:49 0.00348049
8 *168:20 0.00296652
9 *1030:B *169:16 0.00010096
10 *1030:B *215:14 0.000500858
11 *1030:B *216:20 0
12 *1038:B *1148:A0 0.000788227
13 *1038:B *173:38 6.73707e-06
14 *1038:B *257:14 0.000135795
15 *168:20 *1148:A0 4.86178e-05
16 *168:20 *256:34 0.00102816
17 *168:49 *1055:A2 0.000458354
18 *168:49 *1089:A0 8.38052e-05
19 *168:49 *226:30 0.000174794
20 *168:51 *219:20 0.000907776
21 *168:55 *187:20 0.000810482
22 *168:55 *189:34 0.000430354
23 *168:55 *211:30 0.00142111
24 *168:55 *216:20 0
25 *1008:C1 *168:51 0
26 *1035:A1_N *1038:B 9.53399e-05
27 *1055:B1 *168:49 0.00047978
28 *1097:A2 *168:20 0.000101432
29 *1097:B1 *168:20 0.000306142
30 *1189:A *168:55 2.26973e-05
31 *1190:A *168:55 2.26973e-05
32 *65:28 *168:20 0.000248624
33 *67:16 *168:55 6.30136e-05
34 *70:32 *168:55 0.000131208
35 *80:38 *168:55 0.000217275
36 *85:63 *168:20 0.000457203
37 *90:84 *1038:B 0.00014666
38 *90:106 *1038:B 0.000620374
39 *90:106 *168:49 0.000450235
40 *97:20 *168:20 0.000725919
41 *116:23 *168:20 1.53743e-05
42 *116:60 *1038:B 8.96293e-05
43 *128:44 *168:20 0.00148403
44 *141:18 *1038:B 9.02671e-05
45 *147:16 *168:55 0.00117074
46 *147:24 *168:55 0.00039257
47 *152:30 *168:55 0.00250499
48 *158:12 *168:55 1.50087e-05
*RES
1 *1029:Y *168:20 36.9871 
2 *168:20 *1038:B 24.9444 
3 *168:20 *168:49 23.0262 
4 *168:49 *168:51 47.3571 
5 *168:51 *168:53 4.5 
6 *168:53 *168:55 68.0982 
7 *168:55 *1030:B 32.5589 
*END

*D_NET *169 0.0131848
*CONN
*I *1033:A I *D sky130_fd_sc_hd__or2_1
*I *1039:A1 I *D sky130_fd_sc_hd__o21ai_2
*I *1034:A1 I *D sky130_fd_sc_hd__a21oi_1
*I *1030:Y O *D sky130_fd_sc_hd__xnor2_2
*CAP
1 *1033:A 0.000262894
2 *1039:A1 0.000574857
3 *1034:A1 0
4 *1030:Y 0.00107175
5 *169:35 0.00235652
6 *169:16 0.00259052
7 *1033:A *985:A1 6.69937e-05
8 *1033:A *1033:B 0
9 *1039:A1 *985:B2 0.000681513
10 *1039:A1 *1003:C 0.000261799
11 *1039:A1 *1173:CLK 5.33005e-05
12 *1039:A1 *171:40 0.000117951
13 *1039:A1 *248:23 0.000610182
14 *1039:A1 *258:22 9.94194e-05
15 *169:16 *1086:A 5.33005e-05
16 *169:16 *1138:A 3.49234e-05
17 *169:16 *215:14 0.00010096
18 *169:16 *227:18 0.000805584
19 *169:35 *1033:B 0
20 *169:35 *1034:A2 0
21 *169:35 *1086:A 0.000154793
22 *169:35 *250:64 0.00106883
23 *169:35 *259:50 0.000138416
24 *956:A *169:16 0
25 *970:B *169:16 4.19624e-06
26 *1000:B1 *169:16 1.03196e-05
27 *1030:B *169:16 0.00010096
28 *1034:B1 *169:35 0.000135028
29 *1111:S *169:35 0
30 *1114:A *169:35 0.000302058
31 *1116:A *169:35 2.42516e-05
32 *1136:B *169:16 0.000152815
33 *1139:A *169:35 0.000256997
34 *1151:A *1039:A1 4.05386e-05
35 *1174:D *169:16 0.00011969
36 *36:22 *1039:A1 0.000186837
37 *45:26 *169:16 5.73241e-05
38 *115:42 *169:35 6.30043e-05
39 *116:82 *1033:A 3.90397e-05
40 *116:98 *1033:A 1.66285e-05
41 *116:98 *169:35 1.89507e-06
42 *121:85 *1033:A 0.000188945
43 *121:85 *169:35 0.00023078
44 *124:26 *169:35 1.76649e-05
45 *134:33 *169:16 5.51716e-05
46 *145:75 *1039:A1 7.61281e-05
47 *161:46 *169:16 0
*RES
1 *1030:Y *169:16 38.9607 
2 *169:16 *1034:A1 9.3 
3 *169:16 *169:35 37.2857 
4 *169:35 *1039:A1 37.8536 
5 *169:35 *1033:A 18.4786 
*END

*D_NET *170 0.0124697
*CONN
*I *1061:A1 I *D sky130_fd_sc_hd__a21oi_1
*I *1032:A1 I *D sky130_fd_sc_hd__a21oi_2
*I *1031:X O *D sky130_fd_sc_hd__or2_1
*CAP
1 *1061:A1 0.00218698
2 *1032:A1 0.000134248
3 *1031:X 2.04426e-05
4 *170:35 0.00301258
5 *170:8 0.000980295
6 *1032:A1 *251:16 0.00013926
7 *1032:A1 *257:14 2.18985e-05
8 *1032:A1 *261:14 0.000173004
9 *1061:A1 *1061:B1 0.000643965
10 *1061:A1 *200:30 0.000166132
11 *170:8 *256:22 2.59355e-05
12 *170:35 *949:A_N 6.47405e-05
13 *170:35 *1022:A1_N 1.59935e-05
14 *170:35 *1075:A1 0
15 *170:35 *1158:CLK 6.98131e-05
16 *170:35 *236:194 0.000518701
17 *170:35 *261:14 0.000149299
18 *959:A1 *170:35 0.000135028
19 *963:C *1061:A1 0.00111352
20 *1022:A2_N *170:35 1.05731e-05
21 *1031:A *170:8 5.33005e-05
22 *1032:A2 *1032:A1 5.49489e-05
23 *1038:A *1032:A1 0.000183069
24 *1038:A *170:35 5.05056e-05
25 *77:43 *170:35 0.000263108
26 *77:49 *170:35 5.33005e-05
27 *88:12 *170:35 8.85532e-05
28 *88:54 *170:35 7.03393e-05
29 *100:26 *1061:A1 5.38242e-05
30 *104:14 *1061:A1 0.000360998
31 *106:57 *1061:A1 0.000205616
32 *108:18 *170:35 8.23119e-05
33 *110:53 *170:35 0.000498929
34 *110:70 *170:35 9.77264e-06
35 *120:76 *170:35 0.00017754
36 *120:88 *170:35 5.58875e-06
37 *123:22 *1032:A1 6.05161e-06
38 *128:44 *170:35 0.000368222
39 *132:12 *170:35 0.000125443
40 *161:12 *170:35 0.000175892
*RES
1 *1031:X *170:8 14.3357 
2 *170:8 *1032:A1 17.7107 
3 *170:8 *170:35 35.0179 
4 *170:35 *1061:A1 45.3536 
*END

*D_NET *171 0.0130199
*CONN
*I *1039:A2 I *D sky130_fd_sc_hd__o21ai_2
*I *1033:B I *D sky130_fd_sc_hd__or2_1
*I *1034:A2 I *D sky130_fd_sc_hd__a21oi_1
*I *1032:Y O *D sky130_fd_sc_hd__a21oi_2
*CAP
1 *1039:A2 5.46467e-05
2 *1033:B 0.000287596
3 *1034:A2 0.00126087
4 *1032:Y 0.000601636
5 *171:40 0.0028215
6 *171:20 0.00192932
7 *1033:B *985:B2 0.000121442
8 *1033:B *1122:A1 0.000169654
9 *1033:B *172:16 4.73286e-05
10 *1033:B *174:112 0.000141734
11 *1033:B *230:61 5.49544e-05
12 *1033:B *253:8 0.00026163
13 *1034:A2 *1103:A1 1.51219e-05
14 *1034:A2 *1122:A1 0.000365224
15 *1034:A2 *226:30 9.41161e-05
16 *1034:A2 *227:18 8.11955e-05
17 *1034:A2 *259:50 0
18 *1039:A2 *191:97 4.82865e-05
19 *1039:A2 *201:16 2.42516e-05
20 *171:40 *1003:C 0.000115556
21 *171:40 *1150:A1 0.000136682
22 *171:40 *1173:CLK 8.73497e-05
23 *171:40 *191:97 4.19533e-05
24 *171:40 *201:16 0.000213398
25 *171:40 *258:22 0.00011173
26 *171:40 *258:24 8.6229e-06
27 *965:A *171:20 0.000228038
28 *995:A *1034:A2 0.00124139
29 *1011:A2 *171:40 7.47767e-05
30 *1032:B1 *171:20 0.00086954
31 *1033:A *1033:B 0
32 *1039:A1 *171:40 0.000117951
33 *1150:S *171:20 3.43622e-05
34 *1150:S *171:40 2.36643e-05
35 *1174:D *1034:A2 0.000137393
36 *36:22 *171:40 6.38649e-05
37 *57:70 *1034:A2 4.12965e-05
38 *64:88 *1034:A2 0.000126124
39 *93:53 *171:40 0.000206511
40 *104:22 *1034:A2 2.45056e-05
41 *116:82 *1033:B 2.93402e-05
42 *116:98 *1033:B 9.93918e-06
43 *130:39 *1034:A2 3.10389e-05
44 *130:78 *1034:A2 5.55567e-05
45 *145:75 *171:20 0.000608795
46 *169:35 *1033:B 0
47 *169:35 *1034:A2 0
*RES
1 *1032:Y *171:20 33.1214 
2 *171:20 *171:40 32.5 
3 *171:40 *1034:A2 29.9017 
4 *171:40 *1033:B 21.05 
5 *171:20 *1039:A2 10.675 
*END

*D_NET *172 0.00814169
*CONN
*I *1035:B1 I *D sky130_fd_sc_hd__a2bb2o_4
*I *1033:X O *D sky130_fd_sc_hd__or2_1
*CAP
1 *1035:B1 0.00154506
2 *1033:X 0.00102118
3 *172:16 0.00256623
4 *1035:B1 *1063:B 0.000136727
5 *1035:B1 *1074:A1 1.58163e-05
6 *1035:B1 *1074:A2 3.28686e-05
7 *1035:B1 *1074:B1 1.71482e-05
8 *1035:B1 *1168:CLK 0.000147968
9 *1035:B1 *210:49 8.02717e-05
10 *1035:B1 *237:45 0.000678995
11 *172:16 *1168:CLK 0.000220035
12 *172:16 *1173:CLK 0.000186724
13 *172:16 *174:112 6.23043e-05
14 *172:16 *230:61 0.000343528
15 *172:16 *233:19 6.55169e-05
16 *172:16 *233:133 0.000218455
17 *172:16 *233:137 2.59355e-05
18 *985:B1 *172:16 3.08225e-05
19 *1033:B *172:16 4.73286e-05
20 *1040:S *172:16 5.33005e-05
21 *1063:A *1035:B1 1.34631e-05
22 *1168:D *1035:B1 2.96226e-05
23 *77:43 *1035:B1 2.12087e-05
24 *90:84 *1035:B1 5.29529e-05
25 *96:42 *172:16 0.000514687
26 *155:82 *1035:B1 1.35455e-05
*RES
1 *1033:X *172:16 36.3536 
2 *172:16 *1035:B1 37.6393 
*END

*D_NET *173 0.0206305
*CONN
*I *1035:B2 I *D sky130_fd_sc_hd__a2bb2o_4
*I *1034:Y O *D sky130_fd_sc_hd__a21oi_1
*CAP
1 *1035:B2 0
2 *1034:Y 0.00103324
3 *173:38 0.00449555
4 *173:20 0.00552879
5 *173:20 *1076:A1 0.000166713
6 *173:20 *1086:A 0.000107698
7 *173:20 *227:18 5.73751e-05
8 *173:20 *233:47 0.000512913
9 *173:20 *250:29 9.38921e-05
10 *173:38 *1040:A0 0.000180627
11 *173:38 *1048:A 0.000360503
12 *173:38 *1094:A1 0.00222903
13 *173:38 *179:34 0
14 *173:38 *211:30 0.000955727
15 *173:38 *228:24 0.000310748
16 *173:38 *229:14 0.000703108
17 *173:38 *237:45 0.000113248
18 *173:38 *257:14 0.000168598
19 *173:38 *271:20 2.69934e-05
20 *173:38 *271:24 8.42341e-05
21 *944:B *173:38 2.68192e-05
22 *990:A *173:38 0.000260361
23 *1000:B1 *173:20 9.59055e-06
24 *1021:B1 *173:38 0.000116315
25 *1038:A *173:38 4.04359e-05
26 *1038:B *173:38 6.73707e-06
27 *1175:D *173:20 0.000208475
28 *34:28 *173:38 0.000153442
29 *39:28 *173:38 0.000475566
30 *70:32 *173:38 0.000223303
31 *77:43 *173:38 8.37087e-05
32 *88:54 *173:38 0.000169801
33 *90:84 *173:38 4.68753e-05
34 *90:106 *173:38 9.00813e-05
35 *101:26 *173:38 0.000967299
36 *109:40 *173:38 4.926e-05
37 *134:10 *173:20 4.5007e-05
38 *139:18 *173:20 6.55564e-05
39 *145:75 *173:38 0.000172889
40 *155:82 *173:38 0.000268558
41 *158:12 *173:38 2.14378e-05
*RES
1 *1034:Y *173:20 41.5455 
2 *173:20 *173:38 49.2646 
3 *173:38 *1035:B2 9.3 
*END

*D_NET *174 0.0322123
*CONN
*I *1089:A1 I *D sky130_fd_sc_hd__mux2_1
*I *1148:A1 I *D sky130_fd_sc_hd__mux2_1
*I *1075:B1 I *D sky130_fd_sc_hd__a21o_1
*I *1074:A2 I *D sky130_fd_sc_hd__o31ai_1
*I *1036:B I *D sky130_fd_sc_hd__nor2_2
*I *1111:A1 I *D sky130_fd_sc_hd__mux2_1
*I *1124:A0 I *D sky130_fd_sc_hd__mux2_1
*I *1077:A2 I *D sky130_fd_sc_hd__a211o_1
*I *1069:A I *D sky130_fd_sc_hd__inv_2
*I *1035:X O *D sky130_fd_sc_hd__a2bb2o_4
*CAP
1 *1089:A1 0.00032847
2 *1148:A1 0
3 *1075:B1 0
4 *1074:A2 1.38783e-05
5 *1036:B 0
6 *1111:A1 0.000275175
7 *1124:A0 0.00120319
8 *1077:A2 0
9 *1069:A 0.00023153
10 *1035:X 0.000285536
11 *174:124 0.00209086
12 *174:112 0.00160736
13 *174:83 0.00135072
14 *174:73 0.0014331
15 *174:57 0.00133067
16 *174:45 0.000996675
17 *174:29 0.00201213
18 *174:6 0.00147137
19 *1069:A *1146:A0 0.000302786
20 *1069:A *223:18 0.00017754
21 *1089:A1 *1087:S 0.000358091
22 *1089:A1 *1089:A0 7.57394e-05
23 *1089:A1 *218:8 4.97967e-05
24 *1089:A1 *218:16 4.10056e-05
25 *1089:A1 *219:20 0
26 *1111:A1 *259:50 0.000285005
27 *1124:A0 *1082:A 0.000118451
28 *1124:A0 *1103:A1 4.21517e-05
29 *174:6 *1146:A0 0.000374444
30 *174:6 *237:53 9.66977e-05
31 *174:29 *218:16 0.00119419
32 *174:29 *263:44 0.000662984
33 *174:45 *977:A_N 9.41642e-05
34 *174:45 *1054:A 0.000175299
35 *174:45 *1107:A0 0.000221894
36 *174:57 *1089:A0 7.69791e-05
37 *174:57 *208:75 4.34677e-05
38 *174:57 *236:194 5.49995e-05
39 *174:73 *1054:A 2.45832e-05
40 *174:73 *1089:A0 0.000668752
41 *174:73 *1140:A 0.000481421
42 *174:73 *1152:A1 4.91806e-05
43 *174:73 *191:124 0.000181817
44 *174:73 *208:75 9.58689e-05
45 *174:73 *236:194 9.58689e-05
46 *174:73 *264:10 0.000136388
47 *174:83 *1077:B1 5.52302e-05
48 *174:83 *191:124 0.00038507
49 *174:83 *234:112 0.000111218
50 *174:112 *1077:A1 0.000228725
51 *174:112 *1077:B1 1.51489e-05
52 *174:112 *1173:CLK 0.000345296
53 *174:112 *230:61 0.000139187
54 *174:112 *234:112 1.32056e-05
55 *174:124 *1082:A 0.000241717
56 *174:124 *1103:A1 0.00018146
57 *965:A *174:73 1.71401e-05
58 *984:A *174:73 0.000109459
59 *987:A1 *174:112 0.00066295
60 *987:B1 *174:112 1.21258e-05
61 *995:A *1124:A0 0.0001133
62 *1005:C *174:29 9.92606e-05
63 *1016:A1 *1124:A0 0.000351482
64 *1027:A *174:83 2.4102e-05
65 *1032:B1 *174:73 9.54798e-06
66 *1033:B *174:112 0.000141734
67 *1035:B1 *1074:A2 3.28686e-05
68 *1036:A *174:124 5.33005e-05
69 *1055:A3 *1089:A1 0
70 *1087:A1 *1089:A1 0.000228876
71 *1107:S *174:45 0.000371884
72 *1107:S *174:57 0.000382413
73 *1111:S *1111:A1 2.2351e-05
74 *1114:A *174:124 6.34436e-05
75 *1124:S *1124:A0 3.71308e-05
76 *1136:B *1124:A0 0.000117673
77 *1146:A1 *1069:A 0.000134047
78 *1146:A1 *174:6 0.000188031
79 *1146:S *1069:A 0.000298483
80 *1146:S *174:29 3.47641e-06
81 *1148:S *174:45 2.36643e-05
82 *1148:S *174:57 0.000481421
83 *1162:D *174:73 0.000280643
84 *1162:D *174:83 0.000363144
85 *1168:D *1074:A2 9.75337e-06
86 *21:34 *174:73 8.6281e-05
87 *27:18 *1124:A0 0.000603968
88 *29:20 *1124:A0 7.36733e-05
89 *30:14 *1089:A1 2.29112e-05
90 *30:14 *174:45 0.000141935
91 *39:28 *174:29 9.45051e-05
92 *49:61 *174:83 6.91176e-05
93 *50:8 *174:45 3.05522e-05
94 *50:18 *174:29 0.000195403
95 *64:88 *1124:A0 0.000305737
96 *71:43 *174:73 0.000486187
97 *78:99 *174:45 4.19624e-06
98 *88:70 *174:29 0.0002219
99 *96:42 *174:112 0.000345296
100 *97:43 *174:57 0.000183078
101 *103:32 *174:112 6.94952e-05
102 *104:22 *1124:A0 6.66336e-05
103 *110:70 *174:29 0.000475642
104 *112:18 *1069:A 0.000252193
105 *116:8 *174:45 0.000334695
106 *116:23 *174:29 0.000243379
107 *122:37 *174:73 6.38027e-05
108 *123:22 *174:73 0.000126776
109 *140:12 *1124:A0 0.000268822
110 *145:75 *174:73 6.87321e-05
111 *155:82 *174:6 0.000141662
112 *161:46 *1124:A0 1.32178e-05
113 *172:16 *174:112 6.23043e-05
*RES
1 *1035:X *174:6 16.8179 
2 *174:6 *1069:A 16.425 
3 *174:6 *174:29 38.625 
4 *174:29 *174:45 29.2143 
5 *174:45 *174:57 17.1607 
6 *174:57 *174:73 38.2857 
7 *174:73 *174:83 13.4107 
8 *174:83 *1077:A2 9.3 
9 *174:83 *174:112 29.4643 
10 *174:112 *174:124 15.1429 
11 *174:124 *1124:A0 35.4964 
12 *174:124 *1111:A1 18.0321 
13 *174:112 *1036:B 9.3 
14 *174:73 *1074:A2 14.1304 
15 *174:57 *1075:B1 9.3 
16 *174:45 *1148:A1 9.3 
17 *174:29 *1089:A1 22.0321 
*END

*D_NET *175 0.02157
*CONN
*I *1065:A I *D sky130_fd_sc_hd__xnor2_1
*I *1067:A I *D sky130_fd_sc_hd__nor2_2
*I *1036:Y O *D sky130_fd_sc_hd__nor2_2
*CAP
1 *1065:A 0.00389522
2 *1067:A 0.000607943
3 *1036:Y 9.25932e-05
4 *175:12 0.00459575
5 *1065:A *1065:B 6.27272e-06
6 *1065:A *180:65 0.000623148
7 *1065:A *185:20 0
8 *1065:A *197:46 0.000461976
9 *1065:A *203:24 0.000200873
10 *1065:A *215:14 0.000160396
11 *1065:A *226:30 0.000541543
12 *1065:A *258:34 0.000310589
13 *1067:A *1079:A2 2.02727e-05
14 *1067:A *205:22 0.000872711
15 *175:12 *205:22 0.000169718
16 *937:A *1065:A 0.000100368
17 *978:B *1065:A 0.000539182
18 *1028:A1 *1067:A 0.000563001
19 *1028:C1 *1067:A 0.00036404
20 *1130:C *175:12 2.06112e-05
21 *23:28 *1065:A 0.00148409
22 *45:26 *1065:A 0.0033983
23 *69:14 *1067:A 0.000212492
24 *85:20 *1065:A 7.13826e-05
25 *90:70 *1067:A 0.00038704
26 *90:70 *175:12 0.000144881
27 *95:18 *1065:A 1.35933e-05
28 *96:42 *175:12 2.11419e-05
29 *115:42 *1067:A 6.4721e-05
30 *117:12 *1065:A 1.36077e-05
31 *163:18 *1065:A 0.00148061
32 *166:14 *1065:A 0.000131937
*RES
1 *1036:Y *175:12 17.786 
2 *175:12 *1067:A 30.2892 
3 *175:12 *1065:A 37.3399 
*END

*D_NET *176 0.00793017
*CONN
*I *1052:A1 I *D sky130_fd_sc_hd__a32o_4
*I *1037:Y O *D sky130_fd_sc_hd__o21ai_1
*CAP
1 *1052:A1 0.00106804
2 *1037:Y 0.00126425
3 *176:12 0.00233229
4 *1052:A1 *191:8 9.56233e-05
5 *176:12 *1080:A 1.77294e-05
6 *176:12 *197:46 0
7 *176:12 *223:38 0.00024868
8 *986:A2 *176:12 3.45395e-05
9 *988:B *176:12 0.000328243
10 *1043:A *1052:A1 0.000875621
11 *31:12 *1052:A1 5.98903e-05
12 *64:68 *176:12 5.65796e-05
13 *81:142 *176:12 0.000854044
14 *82:18 *176:12 7.74135e-05
15 *118:24 *1052:A1 5.65955e-05
16 *149:18 *1052:A1 0.000560626
*RES
1 *1037:Y *176:12 40.2286 
2 *176:12 *1052:A1 27.6571 
*END

*D_NET *177 0.00310103
*CONN
*I *1039:B1 I *D sky130_fd_sc_hd__o21ai_2
*I *1038:X O *D sky130_fd_sc_hd__or2_1
*CAP
1 *1039:B1 0.000731212
2 *1038:X 0.000731212
3 *1039:B1 *1009:A2 6.73482e-05
4 *1039:B1 *1187:A 5.46373e-05
5 *1039:B1 *178:18 4.18517e-05
6 *1039:B1 *201:16 5.66971e-05
7 *1039:B1 *209:59 2.80052e-05
8 *1039:B1 *227:51 2.30981e-05
9 *1039:B1 *228:24 0.000139463
10 *1039:B1 *234:148 5.25862e-06
11 *1039:B1 *244:12 1.30694e-05
12 *1039:B1 *247:46 9.85571e-05
13 *1039:B1 *251:16 5.50052e-05
14 *1039:B1 *261:14 0.000858017
15 *1009:B1 *1039:B1 1.90936e-05
16 *62:14 *1039:B1 7.40536e-05
17 *83:48 *1039:B1 0
18 *146:26 *1039:B1 0.000104453
*RES
1 *1038:X *1039:B1 43.725 
*END

*D_NET *178 0.0203738
*CONN
*I *1093:A1 I *D sky130_fd_sc_hd__a21oi_2
*I *1047:A I *D sky130_fd_sc_hd__or2_1
*I *1048:A I *D sky130_fd_sc_hd__nand2_1
*I *1039:Y O *D sky130_fd_sc_hd__o21ai_2
*CAP
1 *1093:A1 0
2 *1047:A 0.000144589
3 *1048:A 0.00343835
4 *1039:Y 0.000471201
5 *178:71 0.00162501
6 *178:18 0.00538997
7 *1047:A *1093:A2 5.49544e-05
8 *1047:A *186:28 5.65955e-05
9 *1047:A *196:16 2.30184e-05
10 *1048:A *1048:B 0.000307964
11 *1048:A *1148:A0 4.16953e-05
12 *1048:A *179:34 0.000458382
13 *1048:A *185:20 0.000177472
14 *1048:A *198:54 0.000928181
15 *1048:A *228:24 0.000239517
16 *1048:A *242:24 0.000708005
17 *178:18 *1041:A0 4.17137e-05
18 *178:18 *1148:A0 0.00012023
19 *178:18 *1187:A 5.52302e-05
20 *178:18 *191:97 5.33005e-05
21 *178:18 *204:28 0.000113877
22 *178:18 *209:59 8.6229e-06
23 *178:18 *227:51 1.26641e-05
24 *178:18 *269:26 5.14757e-05
25 *178:71 *945:A1 1.58163e-05
26 *178:71 *1093:B1 9.66977e-05
27 *178:71 *1095:A2 0
28 *178:71 *1100:A_N 0.000143375
29 *178:71 *1100:B 0.000229657
30 *178:71 *1128:A0 0.0001921
31 *178:71 *196:16 0.00108834
32 *178:71 *198:28 0
33 *178:71 *198:54 1.90936e-05
34 *178:71 *237:53 4.19581e-05
35 *178:71 *242:24 0.000387203
36 *945:A2 *178:71 0.000299965
37 *1031:B *178:71 0.000219598
38 *1032:A2 *178:71 0.000246751
39 *1035:A1_N *1048:A 0.000491281
40 *1035:A1_N *178:71 1.29739e-05
41 *1039:B1 *178:18 4.18517e-05
42 *1051:A0 *1048:A 0.000113008
43 *1119:A *178:71 0.000135028
44 *22:12 *1048:A 0.000226833
45 *57:22 *1047:A 1.24368e-05
46 *57:22 *178:71 5.62622e-05
47 *63:30 *178:18 8.92205e-05
48 *84:32 *178:71 8.55871e-05
49 *95:73 *178:18 0.000215649
50 *100:26 *1048:A 8.92205e-05
51 *116:60 *178:71 1.90936e-05
52 *116:82 *1048:A 5.31139e-06
53 *130:39 *1048:A 0.000133892
54 *141:18 *1048:A 8.3628e-05
55 *141:18 *178:18 0.000152217
56 *141:36 *178:18 0.000547268
57 *173:38 *1048:A 0.000360503
*RES
1 *1039:Y *178:18 23.4296 
2 *178:18 *1048:A 31.5422 
3 *178:18 *178:71 38.6261 
4 *178:71 *1047:A 11.9071 
5 *178:71 *1093:A1 9.3 
*END

*D_NET *179 0.0185663
*CONN
*I *1041:A1 I *D sky130_fd_sc_hd__mux2_1
*I *1040:X O *D sky130_fd_sc_hd__mux2_1
*CAP
1 *1041:A1 0.000118982
2 *1040:X 0.00446292
3 *179:34 0.00458191
4 *1041:A1 *218:16 0.000389365
5 *179:34 *1041:A0 0.00245297
6 *179:34 *1048:B 0.000714109
7 *179:34 *1062:A2 0.000262232
8 *179:34 *1103:A0 0.000213017
9 *179:34 *185:20 0.000353992
10 *179:34 *219:20 1.60988e-05
11 *179:34 *228:24 0.00169139
12 *179:34 *235:60 1.90936e-05
13 *179:34 *239:76 6.47254e-05
14 *179:34 *263:44 2.24813e-05
15 *179:34 *267:14 6.82866e-05
16 *179:34 *268:30 5.00194e-05
17 *981:B1 *179:34 9.57263e-05
18 *1003:D *1041:A1 7.47432e-05
19 *1041:S *1041:A1 9.84673e-05
20 *1048:A *179:34 0.000458382
21 *1051:A0 *179:34 4.25489e-05
22 *1120:S *179:34 4.4044e-05
23 *56:22 *179:34 1.24231e-05
24 *64:32 *179:34 0.00102651
25 *77:117 *1041:A1 6.05161e-06
26 *82:30 *1041:A1 4.34853e-05
27 *84:38 *179:34 0.000178466
28 *95:73 *179:34 0.000383111
29 *115:42 *179:34 4.69403e-05
30 *116:82 *179:34 0.000533733
31 *118:59 *1041:A1 1.32293e-05
32 *130:39 *179:34 2.68149e-05
33 *173:38 *179:34 0
*RES
1 *1040:X *179:34 48.7369 
2 *179:34 *1041:A1 13.6393 
*END

*D_NET *180 0.0275304
*CONN
*I *1045:A I *D sky130_fd_sc_hd__nor2_1
*I *1044:A I *D sky130_fd_sc_hd__and2_1
*I *1050:A1 I *D sky130_fd_sc_hd__mux2_1
*I *1041:X O *D sky130_fd_sc_hd__mux2_1
*CAP
1 *1045:A 0.000461793
2 *1044:A 0
3 *1050:A1 6.74859e-05
4 *1041:X 0.00130105
5 *180:65 0.000822008
6 *180:55 0.00273018
7 *180:39 0.0026843
8 *180:14 0.00105298
9 *180:8 0.00197221
10 *1045:A *1045:B 0.000266784
11 *1045:A *184:8 1.21258e-05
12 *1045:A *188:14 1.98839e-05
13 *1050:A1 *1050:A0 5.33005e-05
14 *180:8 *1105:A 0.000695818
15 *180:8 *218:16 5.33005e-05
16 *180:14 *182:41 2.37944e-05
17 *180:14 *184:14 9.77716e-06
18 *180:39 *1044:B 1.27349e-05
19 *180:39 *1080:A 9.71197e-05
20 *180:39 *1197:A 0.00157575
21 *180:39 *245:20 3.90513e-05
22 *180:39 *260:42 0
23 *180:55 *1065:B 9.83442e-05
24 *180:55 *215:14 0.00170009
25 *180:55 *240:8 5.68713e-05
26 *180:65 *1044:B 9.77423e-05
27 *180:65 *183:10 9.58508e-05
28 *180:65 *215:14 0.00293104
29 *180:65 *239:56 0
30 seg[3] *180:39 2.06178e-05
31 *978:B *180:65 0.00201809
32 *980:B *1045:A 5.49489e-05
33 *988:A *180:39 0.000509582
34 *989:B_N *180:39 0.000200113
35 *1029:A1 *1045:A 0
36 *1037:A1 *180:39 0.00010326
37 *1037:A2 *180:8 6.13757e-06
38 *1037:A2 *180:39 0.000161468
39 *1050:S *1050:A1 5.33005e-05
40 *1050:S *180:8 3.53533e-05
41 *1065:A *180:65 0.000623148
42 *1105:C *180:8 1.95435e-05
43 *53:14 *180:65 0.000313241
44 *94:8 *180:65 6.74926e-05
45 *106:37 *1045:A 0.00148094
46 *106:37 *180:14 0.000200151
47 *118:59 *180:8 0.000436074
48 *127:10 *180:39 0.000124749
49 *128:12 *180:39 0.000230969
50 *135:8 *1050:A1 3.97677e-05
51 *135:8 *180:14 0.000105471
52 *135:14 *1045:A 0.00152677
53 *135:14 *180:14 0.000224652
54 *166:26 *180:14 4.31391e-05
*RES
1 *1041:X *180:8 29.9429 
2 *180:8 *180:14 10.1429 
3 *180:14 *1050:A1 10.6571 
4 *180:14 *180:39 43.9464 
5 *180:39 *180:55 37.3571 
6 *180:55 *180:65 43.125 
7 *180:65 *1044:A 9.3 
8 *180:8 *1045:A 36.5679 
*END

*D_NET *181 0.0116432
*CONN
*I *1043:B I *D sky130_fd_sc_hd__xnor2_2
*I *1042:X O *D sky130_fd_sc_hd__a31o_1
*CAP
1 *1043:B 0.000270652
2 *1042:X 0.0034592
3 *181:28 0.00372986
4 *181:28 *1044:B 1.64619e-05
5 *181:28 *1093:B1 0
6 *181:28 *186:28 4.65519e-05
7 *181:28 *200:30 8.44029e-05
8 *988:B *1043:B 0.000146919
9 *992:A1 *181:28 6.10643e-06
10 *1032:A2 *181:28 0.00104707
11 *1043:A *1043:B 0.000918805
12 *1097:A2 *181:28 0.000288272
13 *39:28 *181:28 4.65519e-05
14 *48:36 *181:28 0.000552732
15 *65:28 *181:28 0.000155093
16 *88:70 *181:28 0.000718973
17 *106:37 *181:28 4.8817e-05
18 *110:70 *181:28 1.90936e-05
19 *127:31 *181:28 4.59146e-05
20 *130:78 *181:28 4.16953e-05
21 *131:36 *181:28 0
*RES
1 *1042:X *181:28 46.829 
2 *181:28 *1043:B 18.05 
*END

*D_NET *182 0.0228266
*CONN
*I *1045:B I *D sky130_fd_sc_hd__nor2_1
*I *1044:B I *D sky130_fd_sc_hd__and2_1
*I *1043:Y O *D sky130_fd_sc_hd__xnor2_2
*CAP
1 *1045:B 0.000406669
2 *1044:B 0.00336556
3 *1043:Y 4.96885e-05
4 *182:41 0.00137386
5 *182:6 0.00438244
6 *1044:B *1052:A3 0.000113141
7 *1044:B *1068:A 0.000430962
8 *1044:B *1092:A 0.00157259
9 *1044:B *183:10 6.05161e-06
10 *1044:B *183:34 0.000319373
11 *1044:B *186:28 0.000280376
12 *1044:B *187:20 0.000238899
13 *1044:B *191:54 9.39556e-05
14 *1044:B *206:18 4.22135e-06
15 *1044:B *216:79 0.000255574
16 *1044:B *220:24 0.00111237
17 *1044:B *239:56 7.49002e-05
18 *1044:B *260:42 0.00014168
19 *1044:B *269:8 0.000121926
20 *1045:B *184:8 0.000179446
21 *1045:B *184:14 0.000267237
22 *980:B *1045:B 4.36805e-05
23 *988:B *182:6 5.33005e-05
24 *1029:A1 *1045:B 0.000313212
25 *1045:A *1045:B 0.000266784
26 *1114:A *1044:B 0.000157038
27 *28:32 *182:41 0.00239008
28 *106:37 *1045:B 1.59498e-05
29 *121:50 *182:6 5.33005e-05
30 *127:10 *1044:B 5.35514e-05
31 *127:10 *182:41 2.59355e-05
32 *127:31 *1044:B 0.000141343
33 *135:14 *182:41 0.00140404
34 *147:24 *1044:B 0.00215269
35 *150:48 *182:41 0.000236855
36 *166:14 *1044:B 6.65332e-05
37 *166:26 *182:41 0.000510646
38 *180:14 *182:41 2.37944e-05
39 *180:39 *1044:B 1.27349e-05
40 *180:65 *1044:B 9.77423e-05
41 *181:28 *1044:B 1.64619e-05
*RES
1 *1043:Y *182:6 10.2464 
2 *182:6 *1044:B 40.7751 
3 *182:6 *182:41 49.5 
4 *182:41 *1045:B 28.3893 
*END

*D_NET *183 0.0219336
*CONN
*I *1046:A I *D sky130_fd_sc_hd__nor2_2
*I *1093:B1 I *D sky130_fd_sc_hd__a21oi_2
*I *1044:X O *D sky130_fd_sc_hd__and2_1
*CAP
1 *1046:A 4.54425e-05
2 *1093:B1 0.00310605
3 *1044:X 0.000805255
4 *183:34 0.00494104
5 *183:10 0.00268568
6 *1046:A *191:32 0.000113924
7 *1093:B1 *212:60 0
8 *1093:B1 *221:12 5.52531e-05
9 *1093:B1 *243:20 0.000317891
10 *1093:B1 *245:14 0.000216489
11 *183:10 *1052:A3 0
12 *183:10 *187:20 0.00014225
13 *183:10 *191:32 0.000417717
14 *183:34 *1052:A3 0.00149943
15 *183:34 *190:30 1.37495e-05
16 *183:34 *234:18 8.6281e-05
17 *183:34 *236:73 0.000120929
18 *183:34 *236:100 1.34548e-05
19 *955:A_N *183:34 0.000107093
20 *992:A1 *1093:B1 0.000147378
21 *1044:B *183:10 6.05161e-06
22 *1044:B *183:34 0.000319373
23 *1097:A2 *1093:B1 3.27853e-05
24 *1172:D *183:34 0
25 *27:18 *183:10 2.87478e-05
26 *32:34 *1093:B1 0.0012266
27 *33:16 *183:34 0.000519619
28 *39:28 *1093:B1 0.000113738
29 *44:22 *1093:B1 0.00105565
30 *48:36 *1093:B1 3.15588e-05
31 *49:39 *183:34 0.000525864
32 *53:14 *183:10 0.000136316
33 *56:22 *1093:B1 6.58294e-06
34 *57:22 *1093:B1 4.96113e-05
35 *64:68 *1093:B1 0.000191529
36 *79:12 *183:34 5.5682e-05
37 *82:54 *183:34 0.000230524
38 *82:135 *1093:B1 0.000991628
39 *108:49 *1093:B1 5.17168e-05
40 *112:57 *183:34 0.000173493
41 *116:98 *1046:A 0.000112898
42 *116:98 *183:10 0
43 *116:98 *183:34 0.000133988
44 *121:18 *1093:B1 0.000233584
45 *121:50 *1093:B1 6.68083e-05
46 *130:78 *1093:B1 5.39198e-06
47 *141:36 *183:34 0.000158847
48 *147:24 *183:34 0.000441368
49 *163:18 *183:10 5.7903e-06
50 *178:71 *1093:B1 9.66977e-05
51 *180:65 *183:10 9.58508e-05
52 *181:28 *1093:B1 0
*RES
1 *1044:X *183:10 26.3 
2 *183:10 *183:34 48.5762 
3 *183:34 *1093:B1 37.7328 
4 *183:10 *1046:A 15.4429 
*END

*D_NET *184 0.0198465
*CONN
*I *1046:B I *D sky130_fd_sc_hd__nor2_2
*I *1045:Y O *D sky130_fd_sc_hd__nor2_1
*CAP
1 *1046:B 0.000110936
2 *1045:Y 0.000308262
3 *184:14 0.00346036
4 *184:8 0.00365768
5 *1046:B *1122:A1 5.50052e-05
6 *184:14 *1052:A3 3.79839e-05
7 *184:14 *186:28 0.000638614
8 *184:14 *216:79 0.000144354
9 *184:14 *245:20 0.00253462
10 *1016:A2 *184:14 0.000146999
11 *1016:B2 *184:14 0.000114862
12 *1029:A1 *184:14 1.28478e-05
13 *1045:A *184:8 1.21258e-05
14 *1045:B *184:8 0.000179446
15 *1045:B *184:14 0.000267237
16 *1052:B1 *184:14 0.000370196
17 *26:28 *184:14 0.000294823
18 *59:18 *1046:B 0.000486491
19 *79:12 *1046:B 5.28442e-06
20 *106:37 *184:14 0.00160239
21 *150:44 *184:14 0.0039617
22 *157:32 *1046:B 0.000230662
23 *166:26 *184:14 0.00120379
24 *180:14 *184:14 9.77716e-06
*RES
1 *1045:Y *184:8 17.6214 
2 *184:8 *184:14 47.7708 
3 *184:14 *1046:B 22.1296 
*END

*D_NET *185 0.0318609
*CONN
*I *1047:B I *D sky130_fd_sc_hd__or2_1
*I *1093:A2 I *D sky130_fd_sc_hd__a21oi_2
*I *1048:B I *D sky130_fd_sc_hd__nand2_1
*I *1046:Y O *D sky130_fd_sc_hd__nor2_2
*CAP
1 *1047:B 0
2 *1093:A2 2.0111e-05
3 *1048:B 0.000970786
4 *1046:Y 0.00217579
5 *185:63 0.000632179
6 *185:55 0.00442707
7 *185:20 0.00696158
8 *1048:B *1067:B 9.41642e-05
9 *1048:B *1079:B1 8.66106e-05
10 *1048:B *187:12 5.49544e-05
11 *1093:A2 *196:16 1.58163e-05
12 *185:20 *950:B 0.000147419
13 *185:20 *1122:A1 0.0002404
14 *185:55 *1089:A0 0.00261301
15 *185:55 *211:18 0.00204986
16 *185:55 *224:12 0
17 *185:55 *270:10 0.00158903
18 *185:63 *186:28 8.6229e-06
19 *185:63 *224:12 0
20 *185:63 *256:34 0.000358847
21 *958:B *185:63 0.00019061
22 *980:A *185:63 0
23 *1040:S *1048:B 0.000616495
24 *1047:A *1093:A2 5.49544e-05
25 *1048:A *1048:B 0.000307964
26 *1048:A *185:20 0.000177472
27 *1065:A *185:20 0
28 *20:16 *1048:B 0.000259324
29 *46:20 *185:55 2.06112e-05
30 *48:36 *185:20 4.926e-05
31 *58:28 *185:55 0.00188251
32 *79:12 *185:20 0
33 *82:185 *185:55 0
34 *85:20 *185:20 0.000197088
35 *90:70 *185:20 0.000589364
36 *95:18 *185:20 0.00157036
37 *95:53 *185:20 4.65519e-05
38 *102:16 *185:55 0
39 *106:65 *185:55 0
40 *116:98 *185:20 0.000310461
41 *130:39 *1048:B 7.30214e-05
42 *136:24 *185:55 0.000866033
43 *146:26 *185:55 1.63885e-05
44 *161:30 *1048:B 3.70887e-05
45 *167:10 *185:55 0.00108101
46 *167:38 *185:55 0
47 *167:38 *185:63 0
48 *179:34 *1048:B 0.000714109
49 *179:34 *185:20 0.000353992
*RES
1 *1046:Y *185:20 33.7303 
2 *185:20 *1048:B 33.0261 
3 *185:20 *185:55 46.5997 
4 *185:55 *185:63 16.6696 
5 *185:63 *1093:A2 9.83571 
6 *185:63 *1047:B 9.3 
*END

*D_NET *186 0.013534
*CONN
*I *1052:A2 I *D sky130_fd_sc_hd__a32o_4
*I *1047:X O *D sky130_fd_sc_hd__or2_1
*CAP
1 *1052:A2 0
2 *1047:X 0.00574929
3 *186:28 0.00574929
4 *186:28 *1052:A3 7.85667e-05
5 *186:28 *191:54 0.000340436
6 *186:28 *196:16 5.03644e-05
7 *186:28 *216:79 0.000485555
8 *186:28 *234:31 4.99283e-06
9 *186:28 *245:14 1.67759e-05
10 *958:B *186:28 4.22135e-06
11 *1044:B *186:28 0.000280376
12 *1047:A *186:28 5.65955e-05
13 *106:37 *186:28 2.37465e-05
14 *181:28 *186:28 4.65519e-05
15 *184:14 *186:28 0.000638614
16 *185:63 *186:28 8.6229e-06
*RES
1 *1047:X *186:28 44.0967 
2 *186:28 *1052:A2 9.3 
*END

*D_NET *187 0.0208666
*CONN
*I *1052:A3 I *D sky130_fd_sc_hd__a32o_4
*I *1048:Y O *D sky130_fd_sc_hd__nand2_1
*CAP
1 *1052:A3 0.00162169
2 *1048:Y 0.000542365
3 *187:20 0.0041434
4 *187:12 0.00306408
5 *1052:A3 *234:31 4.43299e-05
6 *187:12 *1040:A0 0.000178503
7 *187:20 *189:34 0.000256137
8 *187:20 *211:30 0.00141769
9 *187:20 *216:20 0
10 *187:20 *220:24 0.000356011
11 *187:20 *229:14 9.87201e-05
12 *981:A3 *187:20 0
13 *1016:B2 *1052:A3 0.000877514
14 *1040:S *187:12 5.69386e-05
15 *1044:B *1052:A3 0.000113141
16 *1044:B *187:20 0.000238899
17 *1048:B *187:12 5.49544e-05
18 *1052:B1 *1052:A3 0.00124689
19 *1185:A *187:20 0.000886102
20 *1190:A *187:20 1.94879e-05
21 *27:18 *1052:A3 0.000107222
22 *45:26 *187:20 0.000362346
23 *94:8 *187:20 0.000127376
24 *116:98 *1052:A3 0
25 *147:16 *187:12 6.05161e-06
26 *147:24 *1052:A3 5.12801e-05
27 *147:24 *187:20 8.95918e-06
28 *158:12 *187:20 0.00239875
29 *163:18 *1052:A3 1.90936e-05
30 *168:55 *187:20 0.000810482
31 *183:10 *1052:A3 0
32 *183:10 *187:20 0.00014225
33 *183:34 *1052:A3 0.00149943
34 *184:14 *1052:A3 3.79839e-05
35 *186:28 *1052:A3 7.85667e-05
*RES
1 *1048:Y *187:12 20.6393 
2 *187:12 *187:20 47.7784 
3 *187:20 *1052:A3 29.514 
*END

*D_NET *188 0.0109761
*CONN
*I *1050:A0 I *D sky130_fd_sc_hd__mux2_1
*I *1049:Y O *D sky130_fd_sc_hd__inv_2
*CAP
1 *1050:A0 0.000785578
2 *1049:Y 0.00224772
3 *188:14 0.0030333
4 *1050:A0 *212:60 6.32026e-05
5 *188:14 *1078:A3 7.14469e-05
6 *188:14 *256:22 9.99853e-05
7 seg[0] *1050:A0 1.16198e-05
8 seg[1] *1050:A0 1.21955e-05
9 *953:A2 *188:14 1.72894e-05
10 *967:A *1050:A0 0
11 *980:A *188:14 9.58689e-05
12 *980:B *1050:A0 0.0013344
13 *980:B *188:14 0.000181036
14 *982:B *188:14 0.000346054
15 *1029:A1 *1050:A0 0.000470387
16 *1031:B *188:14 9.83388e-05
17 *1042:A3 *188:14 6.09682e-05
18 *1045:A *188:14 1.98839e-05
19 *1050:A1 *1050:A0 5.33005e-05
20 *1050:S *1050:A0 8.37327e-05
21 *1105:C *1050:A0 0.00019255
22 *76:32 *1050:A0 0.00013192
23 *120:88 *188:14 0.000307481
24 *128:12 *1050:A0 0.000395554
25 *128:22 *1050:A0 6.66498e-06
26 *150:60 *188:14 0.000855667
*RES
1 *1049:Y *188:14 47.5143 
2 *188:14 *1050:A0 42.4429 
*END

*D_NET *189 0.0305472
*CONN
*I *1051:A1 I *D sky130_fd_sc_hd__mux2_1
*I *1050:X O *D sky130_fd_sc_hd__mux2_1
*CAP
1 *1051:A1 0
2 *1050:X 0.0102126
3 *189:34 0.0102126
4 *189:34 *190:30 0.000162144
5 *189:34 *200:30 6.44498e-05
6 *189:34 *206:18 6.47358e-05
7 *189:34 *211:18 1.8995e-06
8 *189:34 *211:30 0.000194212
9 *189:34 *212:60 0
10 *189:34 *260:42 1.73698e-05
11 *967:A *189:34 2.59355e-05
12 *1051:A0 *189:34 0.000246605
13 *1051:S *189:34 0.000246605
14 *1061:A2 *189:34 0
15 *1153:A *189:34 0.000203987
16 *1182:RESET_B *189:34 0.000100248
17 *70:32 *189:34 0.00580449
18 *80:38 *189:34 0.001473
19 *147:16 *189:34 0.000359217
20 *152:30 *189:34 0.00047066
21 *168:55 *189:34 0.000430354
22 *187:20 *189:34 0.000256137
*RES
1 *1050:X *189:34 48.3317 
2 *189:34 *1051:A1 9.3 
*END

*D_NET *190 0.0250846
*CONN
*I *1052:B2 I *D sky130_fd_sc_hd__a32o_4
*I *1051:X O *D sky130_fd_sc_hd__mux2_1
*CAP
1 *1052:B2 0
2 *1051:X 0.00806501
3 *190:30 0.00806501
4 *190:30 *955:B 5.02197e-05
5 *190:30 *1040:A0 0.000317239
6 *190:30 *1068:A 0.00028123
7 *190:30 *1098:A1 2.63501e-05
8 *190:30 *1113:A0 2.52164e-05
9 *190:30 *1142:B 0
10 *190:30 *198:18 4.26016e-05
11 *190:30 *200:30 3.10028e-05
12 *190:30 *203:24 0.00022929
13 *190:30 *211:18 0.000162008
14 *190:30 *216:20 0.000853136
15 *190:30 *220:24 0.000111598
16 *190:30 *221:43 0.0020761
17 *190:30 *259:14 0.000123512
18 *190:30 *271:20 0.000420301
19 *190:30 *271:24 0.000120878
20 *955:A_N *190:30 0
21 *981:A3 *190:30 0.000311221
22 *70:32 *190:30 0.00328383
23 *80:38 *190:30 0
24 *112:57 *190:30 8.6229e-06
25 *153:18 *190:30 2.02339e-05
26 *166:14 *190:30 0.000284111
27 *183:34 *190:30 1.37495e-05
28 *189:34 *190:30 0.000162144
*RES
1 *1051:X *190:30 46.3542 
2 *190:30 *1052:B2 13.8 
*END

*D_NET *191 0.0378405
*CONN
*I *1066:A I *D sky130_fd_sc_hd__inv_2
*I *1078:A1 I *D sky130_fd_sc_hd__o31ai_2
*I *1064:A I *D sky130_fd_sc_hd__nor2_1
*I *1079:B1 I *D sky130_fd_sc_hd__a211o_1
*I *1150:A1 I *D sky130_fd_sc_hd__mux2_1
*I *1126:A0 I *D sky130_fd_sc_hd__mux2_1
*I *1113:A1 I *D sky130_fd_sc_hd__mux2_1
*I *1091:A1 I *D sky130_fd_sc_hd__mux2_1
*I *1052:X O *D sky130_fd_sc_hd__a32o_4
*CAP
1 *1066:A 0.000422672
2 *1078:A1 0.00058308
3 *1064:A 0
4 *1079:B1 0.000386045
5 *1150:A1 9.15413e-05
6 *1126:A0 9.46451e-05
7 *1113:A1 0
8 *1091:A1 0.000921253
9 *1052:X 5.19274e-05
10 *191:128 0.00104117
11 *191:124 0.00186718
12 *191:97 0.00149863
13 *191:79 0.00180843
14 *191:54 0.00204609
15 *191:32 0.00236918
16 *191:16 0.00184557
17 *191:8 0.00179337
18 *1066:A *935:A 5.05056e-05
19 *1066:A *234:163 0.000502801
20 *1066:A *257:49 0.000314353
21 *1078:A1 *1078:A2 0.000280791
22 *1078:A1 *202:14 7.99355e-05
23 *1079:B1 *1067:B 0.000266455
24 *1079:B1 *1079:C1 4.20178e-05
25 *1079:B1 *228:24 0.000136062
26 *1079:B1 *252:48 9.21611e-05
27 *1091:A1 *1091:A0 5.49544e-05
28 *1091:A1 *1122:A1 1.52131e-05
29 *1091:A1 *1156:A 0.000179799
30 *1091:A1 *220:24 9.25852e-05
31 *1126:A0 *1177:CLK 9.60337e-06
32 *1150:A1 *201:16 4.43256e-05
33 *191:16 *197:46 0
34 *191:16 *234:31 0.000168621
35 *191:16 *236:100 0.000231987
36 *191:16 *252:20 8.19176e-05
37 *191:32 *1122:A1 9.67754e-05
38 *191:32 *220:24 0.000215503
39 *191:54 *257:49 0.0002349
40 *191:79 *1003:A_N 2.62977e-05
41 *191:79 *1117:D_N 2.63501e-05
42 *191:79 *238:70 8.69554e-05
43 *191:79 *257:49 0.000385855
44 *191:97 *1056:A2 0.000481284
45 *191:97 *1072:B 1.03107e-05
46 *191:97 *1187:A 5.89739e-05
47 *191:97 *198:24 0.000310249
48 *191:97 *201:16 2.54558e-06
49 *191:97 *209:59 0.000226439
50 *191:97 *234:8 4.00349e-05
51 *191:97 *234:16 8.79856e-06
52 *191:97 *234:91 0.000149924
53 *191:97 *247:46 0.000123095
54 *191:124 *1152:A1 5.20232e-05
55 *191:124 *1186:A 0.000127386
56 *191:124 *1187:A 6.05161e-06
57 *191:124 *201:52 0.000205494
58 *191:124 *230:86 3.9881e-05
59 *191:124 *236:39 0.000388648
60 *191:124 *242:24 1.22852e-05
61 *191:128 *1064:B 0.000766029
62 *191:128 *202:14 0.00122517
63 *191:128 *252:48 2.19818e-05
64 *937:A *191:54 0.000226294
65 *937:A *191:79 1.0731e-05
66 *984:B *1078:A1 0.000356244
67 *1011:A2 *191:32 5.03772e-05
68 *1019:B *1091:A1 5.50052e-05
69 *1039:A2 *191:97 4.82865e-05
70 *1044:B *191:54 9.39556e-05
71 *1046:A *191:32 0.000113924
72 *1048:B *1079:B1 8.66106e-05
73 *1052:A1 *191:8 9.56233e-05
74 *1073:A *1079:B1 1.29677e-05
75 *1113:S *191:16 1.02911e-05
76 *1113:S *191:32 8.59547e-05
77 *1122:A0 *1091:A1 0.000137561
78 *1150:S *1150:A1 0.000253311
79 *1150:S *191:97 5.33005e-05
80 *1150:S *191:124 0.000190265
81 *1177:D *1126:A0 0.000128972
82 *1183:D *1079:B1 8.49023e-05
83 *1183:D *191:128 0.00130834
84 *23:28 *1079:B1 0.000132162
85 *31:12 *191:8 9.56233e-05
86 *31:28 *1150:A1 5.33072e-05
87 *31:28 *191:124 0.000314687
88 *41:20 *1066:A 0.000284365
89 *41:20 *1126:A0 7.69776e-06
90 *41:20 *191:79 0.000238853
91 *45:26 *191:54 0.000988708
92 *49:61 *191:124 0.000139924
93 *53:14 *191:32 0.000967832
94 *54:12 *191:128 0.00034188
95 *55:14 *191:16 0.000138117
96 *56:12 *191:16 5.33005e-05
97 *59:18 *191:32 6.52296e-05
98 *71:43 *191:124 0.000110339
99 *77:117 *191:97 0.000314841
100 *81:72 *191:79 0.000189979
101 *93:53 *191:124 4.95797e-05
102 *95:73 *1066:A 0.000502801
103 *104:22 *1079:B1 0.000133652
104 *119:46 *1078:A1 0.000109448
105 *121:85 *1126:A0 6.26523e-05
106 *130:39 *1079:B1 3.97964e-05
107 *131:36 *191:54 2.45997e-05
108 *150:10 *191:32 5.71472e-05
109 *155:22 *1091:A1 0.000349777
110 *157:32 *1091:A1 0.00174598
111 *158:8 *1091:A1 0.000565113
112 *161:30 *1079:B1 9.09007e-06
113 *171:40 *1150:A1 0.000136682
114 *171:40 *191:97 4.19533e-05
115 *174:73 *191:124 0.000181817
116 *174:83 *191:124 0.00038507
117 *178:18 *191:97 5.33005e-05
118 *183:10 *191:32 0.000417717
119 *186:28 *191:54 0.000340436
*RES
1 *1052:X *191:8 15.5679 
2 *191:8 *191:16 12.3036 
3 *191:16 *191:32 40.0357 
4 *191:32 *1091:A1 32.425 
5 *191:16 *1113:A1 9.3 
6 *191:8 *191:54 10.3309 
7 *191:54 *1126:A0 21.124 
8 *191:54 *191:79 11.1869 
9 *191:79 *191:97 33.8929 
10 *191:97 *1150:A1 16.7107 
11 *191:97 *191:124 30.0714 
12 *191:124 *191:128 20.6786 
13 *191:128 *1079:B1 28.7509 
14 *191:128 *1064:A 9.3 
15 *191:124 *1078:A1 18.6393 
16 *191:79 *1066:A 24.8 
*END

*D_NET *192 0.00633548
*CONN
*I *1056:A2 I *D sky130_fd_sc_hd__o211ai_1
*I *1053:X O *D sky130_fd_sc_hd__or2_1
*CAP
1 *1056:A2 0.00106278
2 *1053:X 0.000563973
3 *192:20 0.00162675
4 *1056:A2 *198:24 3.88131e-05
5 *192:20 *1009:A2 6.46679e-05
6 *192:20 *1187:A 0.000139515
7 *192:20 *227:51 6.94952e-05
8 *192:20 *234:91 8.2607e-05
9 *192:20 *234:93 4.33899e-05
10 *192:20 *234:95 0.000261799
11 *192:20 *236:49 8.87806e-05
12 *192:20 *244:12 6.05161e-06
13 *192:20 *247:46 2.11419e-05
14 *192:20 *261:14 5.25192e-06
15 *965:A *192:20 0.000175162
16 *83:48 *192:20 0.00012116
17 *84:46 *1056:A2 0.000543665
18 *84:130 *1056:A2 0.000300137
19 *145:75 *192:20 0.000333868
20 *148:8 *192:20 0.000305191
21 *191:97 *1056:A2 0.000481284
*RES
1 *1053:X *192:20 40.8536 
2 *192:20 *1056:A2 22.9786 
*END

*D_NET *193 0.00661889
*CONN
*I *1056:B1 I *D sky130_fd_sc_hd__o211ai_1
*I *1054:X O *D sky130_fd_sc_hd__or2_1
*CAP
1 *1056:B1 0.000206519
2 *1054:X 0.00113344
3 *193:10 0.00133996
4 *1056:B1 *194:14 5.33005e-05
5 *193:10 *945:A1 0.000591246
6 *193:10 *1087:A0 7.23248e-05
7 *193:10 *1098:A1 2.11419e-05
8 *193:10 *207:18 0.000450935
9 *193:10 *223:18 0.000680525
10 *193:10 *226:30 1.01912e-05
11 *946:B *193:10 0.000277942
12 *972:B1 *193:10 6.57603e-05
13 *992:B1 *1056:B1 0.000177545
14 *1146:A1 *193:10 0.000100031
15 *56:22 *193:10 6.75721e-05
16 *57:22 *193:10 0.000290927
17 *57:36 *193:10 0.00039061
18 *82:135 *193:10 8.23132e-05
19 *82:154 *193:10 0.000364285
20 *84:130 *1056:B1 0.000183513
21 *108:65 *193:10 2.2502e-05
22 *167:38 *193:10 3.63026e-05
*RES
1 *1054:X *193:10 49.3893 
2 *193:10 *1056:B1 13.5321 
*END

*D_NET *194 0.00870715
*CONN
*I *1056:C1 I *D sky130_fd_sc_hd__o211ai_1
*I *1055:X O *D sky130_fd_sc_hd__o31a_1
*CAP
1 *1056:C1 0
2 *1055:X 0.000262943
3 *194:14 0.00141366
4 *194:8 0.0016766
5 *194:8 *1055:A2 8.88574e-05
6 *194:14 *1056:A1 0
7 *194:14 *221:37 0.00154369
8 *194:14 *235:60 0.000959608
9 *194:14 *267:14 0.00142384
10 *1041:S *194:14 0.000141969
11 *1055:A3 *194:8 9.84673e-05
12 *1056:B1 *194:14 5.33005e-05
13 *65:28 *194:14 4.4512e-05
14 *81:12 *194:14 2.11419e-05
15 *84:26 *194:14 0
16 *84:130 *194:14 0.00034188
17 *110:78 *194:14 0.000444465
18 *112:30 *194:14 2.84026e-05
19 *112:41 *194:14 5.61411e-05
20 *123:80 *194:14 0.000107677
*RES
1 *1055:X *194:8 17.2107 
2 *194:8 *194:14 43.5536 
3 *194:14 *1056:C1 9.3 
*END

*D_NET *195 0.0055427
*CONN
*I *1057:A I *D sky130_fd_sc_hd__dlymetal6s2s_1
*I *1056:Y O *D sky130_fd_sc_hd__o211ai_1
*CAP
1 *1057:A 0
2 *1056:Y 0.00126765
3 *195:12 0.00126765
4 *195:12 *1005:B 0.000189783
5 *195:12 *224:12 0.000976161
6 *195:12 *260:36 0.000270243
7 *967:A *195:12 0.000277656
8 *1182:RESET_B *195:12 7.6644e-05
9 *84:130 *195:12 0.000671745
10 *118:59 *195:12 1.51571e-05
11 *118:63 *195:12 0.000476057
12 *144:20 *195:12 5.39464e-05
*RES
1 *1056:Y *195:12 43.7107 
2 *195:12 *1057:A 9.3 
*END

*D_NET *196 0.0228611
*CONN
*I *1095:A1 I *D sky130_fd_sc_hd__o21a_1
*I *1094:A1 I *D sky130_fd_sc_hd__a21oi_1
*I *1062:A2 I *D sky130_fd_sc_hd__a31o_2
*I *1057:X O *D sky130_fd_sc_hd__dlymetal6s2s_1
*CAP
1 *1095:A1 0.000274118
2 *1094:A1 0.00228902
3 *1062:A2 0.000679116
4 *1057:X 0.0013123
5 *196:31 0.00275672
6 *196:16 0.002185
7 *1062:A2 *1128:A0 0.000373857
8 *1062:A2 *201:6 5.33005e-05
9 *1094:A1 *1100:A_N 0.000152097
10 *1094:A1 *198:54 0.00211709
11 *1094:A1 *245:14 5.11752e-05
12 *1095:A1 *1095:A2 0.000175456
13 *1095:A1 *1107:A0 0.00036365
14 *1095:A1 *223:18 0.000180066
15 *1095:A1 *256:22 0.000178774
16 *196:16 *197:16 0.000136733
17 *196:31 *1100:A_N 0.000362097
18 *196:31 *245:14 5.51327e-05
19 *1031:B *1062:A2 0.000392501
20 *1031:B *196:16 5.55935e-05
21 *1047:A *196:16 2.30184e-05
22 *1093:A2 *196:16 1.58163e-05
23 *1094:B1 *1094:A1 0.000949913
24 *39:28 *1094:A1 2.08417e-06
25 *43:36 *1094:A1 9.58181e-05
26 *56:22 *1062:A2 2.12184e-05
27 *56:22 *196:31 0.000111458
28 *84:38 *1062:A2 8.48654e-05
29 *88:54 *1094:A1 9.51343e-06
30 *90:106 *1094:A1 3.50637e-05
31 *96:42 *1094:A1 1.90936e-05
32 *106:37 *1094:A1 2.91117e-05
33 *106:95 *1094:A1 0.00034718
34 *112:30 *1062:A2 0.000788069
35 *119:30 *1094:A1 0.000407442
36 *123:22 *1094:A1 1.90936e-05
37 *155:98 *1062:A2 0.000282179
38 *155:98 *196:16 6.30931e-05
39 *158:20 *1094:A1 0.00174352
40 *159:18 *1095:A1 3.97677e-05
41 *173:38 *1094:A1 0.00222903
42 *178:71 *196:16 0.00108834
43 *179:34 *1062:A2 0.000262232
44 *186:28 *196:16 5.03644e-05
*RES
1 *1057:X *196:16 33.7554 
2 *196:16 *1062:A2 30.7196 
3 *196:16 *196:31 4.03353 
4 *196:31 *1094:A1 39.5427 
5 *196:31 *1095:A1 24.1118 
*END

*D_NET *197 0.0185342
*CONN
*I *1059:A I *D sky130_fd_sc_hd__dlymetal6s2s_1
*I *1058:X O *D sky130_fd_sc_hd__and4_1
*CAP
1 *1059:A 0
2 *1058:X 0.000797443
3 *197:46 0.00230982
4 *197:28 0.00307709
5 *197:16 0.00156471
6 *197:16 *218:16 0.00019608
7 *197:16 *256:34 0.00113264
8 *197:28 *218:16 0.00101557
9 *197:28 *238:70 0.000136951
10 *197:46 *1068:A 0.00019635
11 *197:46 *1084:A 7.66099e-05
12 *197:46 *1113:A0 5.24002e-05
13 *197:46 *216:14 0
14 *197:46 *218:16 4.00349e-05
15 *197:46 *252:20 6.47405e-05
16 *946:B *197:16 0.000506698
17 *982:A *197:16 0.000124616
18 *988:B *197:46 0
19 *1010:A_N *197:46 0.000578092
20 *1058:D *197:16 0.000354316
21 *1065:A *197:46 0.000461976
22 *1125:A *197:46 0
23 *45:26 *197:46 0.000187339
24 *50:18 *197:28 0.000175265
25 *64:68 *197:28 0.000353743
26 *64:68 *197:46 4.34166e-05
27 *73:16 *197:28 0.000521023
28 *88:70 *197:16 9.7196e-05
29 *88:70 *197:28 5.41794e-05
30 *98:79 *197:16 0.000268161
31 *100:65 *197:46 0.000127441
32 *101:8 *197:46 0.000525682
33 *101:26 *197:46 0.000155561
34 *122:62 *197:16 0.00123267
35 *127:31 *197:46 0
36 *130:78 *197:28 4.21517e-05
37 *143:16 *197:46 0.000189419
38 *166:14 *197:46 0.00173805
39 *176:12 *197:46 0
40 *191:16 *197:46 0
41 *196:16 *197:16 0.000136733
*RES
1 *1058:X *197:16 47.1036 
2 *197:16 *197:28 27.9911 
3 *197:28 *197:46 46.1422 
4 *197:46 *1059:A 13.8 
*END

*D_NET *198 0.0249693
*CONN
*I *1062:A3 I *D sky130_fd_sc_hd__a31o_2
*I *1095:A2 I *D sky130_fd_sc_hd__o21a_1
*I *1094:A2 I *D sky130_fd_sc_hd__a21oi_1
*I *1059:X O *D sky130_fd_sc_hd__dlymetal6s2s_1
*CAP
1 *1062:A3 0.00020844
2 *1095:A2 0.000389506
3 *1094:A2 0
4 *1059:X 0.00113932
5 *198:54 0.00337995
6 *198:28 0.00445741
7 *198:24 0.00119293
8 *198:18 0.00143587
9 *1062:A3 *201:6 4.13595e-05
10 *1062:A3 *201:16 0.000140769
11 *1095:A2 *1100:A_N 1.94945e-05
12 *1095:A2 *1107:A0 4.06087e-07
13 *1095:A2 *223:18 2.12087e-05
14 *1095:A2 *256:22 0.000199715
15 *198:18 *955:B 0.000268782
16 *198:18 *1113:A0 7.52178e-05
17 *198:18 *1164:CLK 0.000186706
18 *198:18 *234:16 0
19 *198:18 *234:31 0
20 *198:18 *236:73 2.63591e-05
21 *198:18 *259:14 0.000726551
22 *198:24 *201:16 0.000158613
23 *198:24 *209:59 0.000146585
24 *198:24 *236:49 2.51485e-05
25 *198:24 *236:73 3.62412e-05
26 *198:28 *935:A 0.000157329
27 *198:28 *1072:B 0
28 *198:28 *1146:A0 0.000196325
29 *198:28 *234:8 1.34355e-05
30 *198:28 *234:91 5.31204e-05
31 *198:28 *263:44 1.68854e-05
32 *198:28 *268:30 0.000342963
33 *198:54 *1100:B 2.06178e-05
34 *1018:A *198:18 9.23246e-05
35 *1032:A2 *1095:A2 3.04901e-05
36 *1032:A2 *198:28 0.000195633
37 *1032:A2 *198:54 0.000266385
38 *1035:A1_N *198:28 7.78187e-05
39 *1035:A2_N *198:28 0
40 *1042:A1 *1095:A2 0
41 *1048:A *198:54 0.000928181
42 *1052:B1 *198:18 4.43299e-05
43 *1056:A2 *198:24 3.88131e-05
44 *1058:D *1095:A2 1.79457e-05
45 *1094:A1 *198:54 0.00211709
46 *1094:B1 *198:54 0.000949872
47 *1095:A1 *1095:A2 0.000175456
48 *1172:D *198:18 0.000856326
49 *24:26 *198:24 7.21509e-05
50 *41:20 *198:28 4.56775e-05
51 *43:36 *198:54 9.58126e-05
52 *57:50 *198:18 0
53 *77:117 *198:28 0
54 *83:48 *198:18 0.000631809
55 *83:94 *198:28 0.000106866
56 *84:46 *1062:A3 0.000504731
57 *84:46 *198:24 5.33005e-05
58 *84:46 *198:28 2.95642e-05
59 *84:81 *198:24 6.09762e-05
60 *84:130 *1062:A3 4.18895e-05
61 *96:42 *198:54 0.000109247
62 *106:37 *1095:A2 0
63 *106:95 *198:54 0.00033565
64 *112:30 *1062:A3 0.000168497
65 *112:57 *198:18 1.7914e-05
66 *116:60 *198:54 0.000917121
67 *116:82 *198:54 0.000255268
68 *118:24 *198:18 0
69 *119:30 *1095:A2 2.16528e-05
70 *123:22 *198:54 0.00010769
71 *158:20 *198:54 1.35553e-05
72 *159:18 *1095:A2 0.000140088
73 *178:71 *1095:A2 0
74 *178:71 *198:28 0
75 *178:71 *198:54 1.90936e-05
76 *190:30 *198:18 4.26016e-05
77 *191:97 *198:24 0.000310249
*RES
1 *1059:X *198:18 49.2643 
2 *198:18 *198:24 12.1964 
3 *198:24 *198:28 18.2857 
4 *198:28 *198:54 47.6065 
5 *198:54 *1094:A2 9.3 
6 *198:28 *1095:A2 21.05 
7 *198:24 *1062:A3 15.1929 
*END

*D_NET *199 0.00352454
*CONN
*I *1061:B1 I *D sky130_fd_sc_hd__a21oi_1
*I *1060:X O *D sky130_fd_sc_hd__clkbuf_1
*CAP
1 *1061:B1 0.00131761
2 *1060:X 0.00131761
3 *968:A *1061:B1 4.75203e-05
4 *1061:A1 *1061:B1 0.000643965
5 *122:37 *1061:B1 0.000145355
6 *130:39 *1061:B1 5.24866e-05
*RES
1 *1060:X *1061:B1 46.2964 
*END

*D_NET *200 0.0201557
*CONN
*I *1062:B1 I *D sky130_fd_sc_hd__a31o_2
*I *1061:Y O *D sky130_fd_sc_hd__a21oi_1
*CAP
1 *1062:B1 0
2 *1061:Y 0.00541087
3 *200:30 0.00541087
4 *200:30 *1041:A0 0.000212164
5 *200:30 *1054:A 0.000167456
6 *200:30 *1056:A1 0.000217312
7 *200:30 *1098:A1 0.00116381
8 *200:30 *1124:A1 2.35795e-05
9 *200:30 *235:60 0.00134115
10 *200:30 *238:12 2.21972e-05
11 *1004:C1 *200:30 0.000183783
12 *1032:A2 *200:30 5.70609e-05
13 *1061:A1 *200:30 0.000166132
14 *1061:A2 *200:30 0.000559923
15 *1097:A2 *200:30 0
16 *1097:B1 *200:30 0
17 *42:10 *200:30 2.06112e-05
18 *46:20 *200:30 0.00286044
19 *64:32 *200:30 5.22746e-05
20 *65:28 *200:30 0.000551773
21 *80:38 *200:30 4.65624e-05
22 *83:20 *200:30 0.000775491
23 *98:42 *200:30 0.00066882
24 *110:78 *200:30 1.61703e-05
25 *154:18 *200:30 4.73891e-05
26 *181:28 *200:30 8.44029e-05
27 *189:34 *200:30 6.44498e-05
28 *190:30 *200:30 3.10028e-05
*RES
1 *1061:Y *200:30 49.99 
2 *200:30 *1062:B1 9.3 
*END

*D_NET *201 0.0285164
*CONN
*I *1070:A2 I *D sky130_fd_sc_hd__a21oi_2
*I *1107:A1 I *D sky130_fd_sc_hd__mux2_1
*I *1075:A2 I *D sky130_fd_sc_hd__a21o_1
*I *1144:A1 I *D sky130_fd_sc_hd__mux2_1
*I *1120:A0 I *D sky130_fd_sc_hd__mux2_1
*I *1063:B I *D sky130_fd_sc_hd__nor2_1
*I *1074:A3 I *D sky130_fd_sc_hd__o31ai_1
*I *1077:B1 I *D sky130_fd_sc_hd__a211o_1
*I *1085:A1 I *D sky130_fd_sc_hd__mux2_1
*I *1062:X O *D sky130_fd_sc_hd__a31o_2
*CAP
1 *1070:A2 0
2 *1107:A1 0.000109741
3 *1075:A2 6.07479e-05
4 *1144:A1 0
5 *1120:A0 0
6 *1063:B 0.000104046
7 *1074:A3 0
8 *1077:B1 0.000115363
9 *1085:A1 4.00617e-05
10 *1062:X 8.43414e-05
11 *201:116 0.00100392
12 *201:100 0.00169326
13 *201:92 0.0012963
14 *201:90 0.00104901
15 *201:80 0.00153015
16 *201:52 0.000484789
17 *201:33 0.000628716
18 *201:16 0.00120007
19 *201:6 0.00224883
20 *1063:B *1074:B1 3.0938e-05
21 *1063:B *230:61 5.74499e-06
22 *1075:A2 *1055:A2 7.29646e-05
23 *1077:B1 *1077:A1 8.49116e-05
24 *1077:B1 *1077:C1 1.67005e-05
25 *1085:A1 *1085:S 5.49544e-05
26 *1085:A1 *258:22 8.25843e-06
27 *1085:A1 *270:30 0.000137561
28 *1107:A1 *1054:A 2.60403e-05
29 *201:16 *1187:A 4.55166e-05
30 *201:16 *209:59 0.000411261
31 *201:16 *270:30 0.000206852
32 *201:33 *1085:S 2.45908e-05
33 *201:33 *258:22 8.39516e-05
34 *201:33 *270:30 0
35 *201:52 *230:86 1.03483e-05
36 *201:52 *234:95 6.05161e-06
37 *201:52 *234:112 2.72695e-05
38 *201:52 *244:12 9.60875e-05
39 *201:80 *977:A_N 7.47217e-05
40 *201:80 *1078:B1 0.000246819
41 *201:80 *1098:B1 9.39125e-05
42 *201:80 *206:47 0.000336697
43 *201:80 *257:49 8.7519e-05
44 *201:80 *263:18 8.43535e-06
45 *201:90 *977:B 0.000128523
46 *201:90 *1054:A 0
47 *201:90 *208:75 0
48 *201:90 *263:18 0.000112952
49 *201:92 *977:B 0.000694893
50 *201:92 *236:194 3.51056e-05
51 *201:100 *1054:A 0.00022197
52 *201:100 *1124:A1 1.61703e-05
53 *201:100 *207:38 0.000406111
54 *201:100 *208:81 0.000454213
55 *201:100 *236:194 0.000284803
56 *201:100 *267:40 6.51073e-05
57 *201:100 *271:43 0.00129223
58 *201:116 *1124:A1 1.41605e-05
59 *201:116 *1161:CLK 0.000650224
60 *201:116 *208:81 7.39714e-05
61 *201:116 *254:10 1.61405e-05
62 *201:116 *266:10 5.20751e-05
63 *201:116 *267:40 1.00887e-05
64 *982:A *201:80 1.98839e-05
65 *982:B *201:80 0.000683249
66 *985:C1 *201:100 4.06087e-07
67 *1011:A2 *201:52 4.119e-05
68 *1027:A *201:33 0.000121745
69 *1031:B *201:80 1.39894e-05
70 *1035:B1 *1063:B 0.000136727
71 *1039:A2 *201:16 2.42516e-05
72 *1039:B1 *201:16 5.66971e-05
73 *1051:S *201:116 0.000101777
74 *1062:A2 *201:6 5.33005e-05
75 *1062:A3 *201:6 4.13595e-05
76 *1062:A3 *201:16 0.000140769
77 *1063:A *1063:B 3.08382e-06
78 *1132:B *201:100 2.88344e-05
79 *1150:A1 *201:16 4.43256e-05
80 *1150:S *201:16 1.39761e-05
81 *1150:S *201:33 1.05731e-05
82 *1161:D *201:116 0.000107015
83 *1166:D *201:52 7.5088e-05
84 *1168:D *1063:B 1.58163e-05
85 *1168:D *201:52 0.00035835
86 *37:12 *201:116 0.000205772
87 *42:10 *201:116 0.000103437
88 *49:61 *201:33 3.95546e-05
89 *49:61 *201:52 0.000339418
90 *56:22 *201:80 0.00104148
91 *72:12 *201:116 0.00194192
92 *77:117 *201:80 0.000184382
93 *78:99 *1107:A1 0
94 *78:99 *201:90 0.000251732
95 *84:26 *201:80 4.65934e-05
96 *84:32 *201:80 0.000690244
97 *84:81 *201:16 0.000478339
98 *87:32 *201:116 4.35597e-05
99 *96:42 *201:116 0.000222666
100 *97:43 *1075:A2 7.44888e-05
101 *107:12 *201:100 0.00154954
102 *112:30 *201:6 9.60875e-05
103 *119:30 *201:80 2.45832e-05
104 *126:10 *1077:B1 4.58194e-05
105 *159:18 *201:80 1.77757e-05
106 *171:40 *201:16 0.000213398
107 *174:83 *1077:B1 5.52302e-05
108 *174:112 *1077:B1 1.51489e-05
109 *191:97 *201:16 2.54558e-06
110 *191:124 *201:52 0.000205494
111 *198:24 *201:16 0.000158613
*RES
1 *1062:X *201:6 11.0679 
2 *201:6 *201:16 19.3036 
3 *201:16 *1085:A1 10.6571 
4 *201:16 *201:33 12.2143 
5 *201:33 *1077:B1 11.925 
6 *201:33 *201:52 18.0714 
7 *201:52 *1074:A3 9.3 
8 *201:52 *1063:B 12.1214 
9 *201:6 *201:80 37.75 
10 *201:80 *201:90 15.5893 
11 *201:90 *201:92 7.51786 
12 *201:92 *201:100 29.4107 
13 *201:100 *201:116 41.0893 
14 *201:116 *1120:A0 9.3 
15 *201:100 *1144:A1 13.8 
16 *201:92 *1075:A2 19.3357 
17 *201:90 *1107:A1 19.9429 
18 *201:80 *1070:A2 9.3 
*END

*D_NET *202 0.0103761
*CONN
*I *1078:A2 I *D sky130_fd_sc_hd__o31ai_2
*I *1071:A I *D sky130_fd_sc_hd__or2b_1
*I *1064:B I *D sky130_fd_sc_hd__nor2_1
*I *1063:Y O *D sky130_fd_sc_hd__nor2_1
*CAP
1 *1078:A2 0.000250163
2 *1071:A 0.000592822
3 *1064:B 0.000232295
4 *1063:Y 8.81376e-05
5 *202:14 0.00124777
6 *202:10 0.000760956
7 *1064:B *237:45 0.000216452
8 *1064:B *252:48 0.000157171
9 *1071:A *1071:B_N 5.0396e-05
10 *1071:A *1173:CLK 1.75319e-05
11 *1071:A *262:12 7.51948e-05
12 *1078:A2 *973:A1 0.00057444
13 *1078:A2 *237:45 0.000135028
14 *1078:A2 *257:14 3.09889e-05
15 *202:14 *237:45 0.000610608
16 *984:A *1078:A2 5.49489e-05
17 *984:B *1078:A2 9.46926e-05
18 *984:B *202:14 9.75171e-05
19 *985:B1 *1071:A 0.000758519
20 *985:C1 *1071:A 0.000934786
21 *1078:A1 *1078:A2 0.000280791
22 *1078:A1 *202:14 7.99355e-05
23 *1107:S *202:10 9.54798e-06
24 *1130:A *1071:A 0.000261235
25 *32:64 *202:14 0.000135028
26 *49:61 *202:10 0.000160875
27 *93:53 *202:10 0.000161597
28 *99:43 *202:14 9.41642e-05
29 *116:98 *1071:A 0.000169796
30 *119:46 *1078:A2 2.19907e-05
31 *123:22 *1071:A 2.94869e-05
32 *191:128 *1064:B 0.000766029
33 *191:128 *202:14 0.00122517
*RES
1 *1063:Y *202:10 20.55 
2 *202:10 *202:14 14.5179 
3 *202:14 *1064:B 16.8179 
4 *202:14 *1071:A 34.8179 
5 *202:10 *1078:A2 16.8357 
*END

*D_NET *203 0.0232071
*CONN
*I *1065:B I *D sky130_fd_sc_hd__xnor2_1
*I *1064:Y O *D sky130_fd_sc_hd__nor2_1
*CAP
1 *1065:B 0.000251008
2 *1064:Y 0.00308486
3 *203:24 0.00333587
4 *203:24 *1079:A2 0.000416973
5 *203:24 *204:28 4.88232e-05
6 *203:24 *216:14 0.00286326
7 *203:24 *216:20 0.00227699
8 *203:24 *252:48 9.41642e-05
9 *981:A3 *203:24 0.00264493
10 *1065:A *1065:B 6.27272e-06
11 *1065:A *203:24 0.000200873
12 *1185:A *203:24 0.00219674
13 *23:28 *203:24 0.0028128
14 *95:18 *203:24 4.65519e-05
15 *117:12 *203:24 0.00218088
16 *161:30 *203:24 0.000418502
17 *163:18 *203:24 0
18 *180:55 *1065:B 9.83442e-05
19 *190:30 *203:24 0.00022929
*RES
1 *1064:Y *203:24 49.9164 
2 *203:24 *1065:B 18.3625 
*END

*D_NET *204 0.0220689
*CONN
*I *1067:B I *D sky130_fd_sc_hd__nor2_2
*I *1076:A1 I *D sky130_fd_sc_hd__a31o_1
*I *1066:Y O *D sky130_fd_sc_hd__inv_2
*CAP
1 *1067:B 0.000208233
2 *1076:A1 0.00238368
3 *1066:Y 0.00284338
4 *204:28 0.00543529
5 *1076:A1 *1103:A1 0.000280685
6 *1076:A1 *1136:A 0
7 *1076:A1 *205:57 1.18539e-05
8 *1076:A1 *209:18 4.62949e-05
9 *1076:A1 *249:33 0
10 *204:28 *1056:A1 9.59532e-06
11 *204:28 *1128:A0 0.000503579
12 *204:28 *1148:A0 0.000113877
13 *204:28 *252:48 0.00141562
14 *972:B1 *204:28 0.000581837
15 *981:B1 *204:28 7.47317e-05
16 *1000:A2 *1076:A1 4.58194e-05
17 *1019:B *1076:A1 0
18 *1026:A1 *204:28 0.000179156
19 *1040:S *1067:B 0.000219366
20 *1048:B *1067:B 9.41642e-05
21 *1079:B1 *1067:B 0.000266455
22 *1163:D *1076:A1 0.000270219
23 *1177:D *1076:A1 2.58517e-05
24 *1185:A *204:28 0.000487468
25 *20:16 *1067:B 6.10324e-05
26 *20:16 *1076:A1 0.000121549
27 *23:28 *204:28 4.8817e-05
28 *28:16 *1076:A1 9.15842e-06
29 *64:32 *204:28 3.83766e-05
30 *89:22 *204:28 0.00354388
31 *95:18 *1076:A1 2.96195e-05
32 *95:18 *204:28 0.000302533
33 *98:42 *204:28 0.000127359
34 *104:22 *1067:B 0.000268041
35 *109:26 *1076:A1 0.000204215
36 *110:78 *204:28 1.90936e-05
37 *115:42 *1076:A1 0.000264537
38 *115:42 *204:28 0.000460284
39 *120:26 *1076:A1 0.000597831
40 *130:39 *1076:A1 7.38905e-05
41 *134:10 *1076:A1 0
42 *139:18 *1076:A1 7.20784e-05
43 *173:20 *1076:A1 0.000166713
44 *178:18 *204:28 0.000113877
45 *203:24 *204:28 4.88232e-05
*RES
1 *1066:Y *204:28 32.9141 
2 *204:28 *1076:A1 49.0307 
3 *204:28 *1067:B 23.4332 
*END

*D_NET *205 0.0263021
*CONN
*I *1077:C1 I *D sky130_fd_sc_hd__a211o_1
*I *1076:B1 I *D sky130_fd_sc_hd__a31o_1
*I *1068:A I *D sky130_fd_sc_hd__inv_2
*I *1067:Y O *D sky130_fd_sc_hd__nor2_2
*CAP
1 *1077:C1 0.000229983
2 *1076:B1 9.50885e-06
3 *1068:A 0.00174992
4 *1067:Y 0.0019045
5 *205:57 0.001649
6 *205:24 0.00452698
7 *205:22 0.00327205
8 *1068:A *1092:A 0.000666621
9 *1068:A *220:24 0.000634834
10 *1068:A *240:14 2.11419e-05
11 *1068:A *252:20 5.00194e-05
12 *1076:B1 *1076:A3 5.68713e-05
13 *1077:C1 *1077:A1 5.49489e-05
14 *205:22 *985:A1 0.000114616
15 *205:22 *1079:A2 0.000300333
16 *205:22 *210:26 6.35864e-05
17 *205:22 *212:32 0.000109482
18 *205:24 *217:18 5.14357e-05
19 *205:57 *1136:A 0
20 *205:57 *1179:CLK 0.000161269
21 *205:57 *269:8 0.000543394
22 *987:B1 *1077:C1 0.000273545
23 *987:B1 *205:24 0.00055215
24 *1019:B *205:57 0.000370338
25 *1027:A *205:24 0
26 *1028:C1 *205:22 0.000269194
27 *1044:B *1068:A 0.000430962
28 *1067:A *205:22 0.000872711
29 *1076:A1 *205:57 1.18539e-05
30 *1077:B1 *1077:C1 1.67005e-05
31 *1164:D *205:57 0.000292612
32 *24:26 *205:22 0.000379167
33 *26:28 *205:24 5.03585e-05
34 *36:22 *205:24 0
35 *45:26 *1068:A 6.98029e-05
36 *60:10 *205:57 7.89362e-05
37 *82:66 *205:57 0.00125312
38 *90:70 *205:22 0.000176052
39 *96:18 *205:24 0
40 *109:26 *1076:B1 5.49544e-05
41 *126:10 *1077:C1 1.58163e-05
42 *126:18 *205:24 6.18969e-06
43 *129:26 *1077:C1 0.000362125
44 *129:26 *205:24 0.00103362
45 *147:24 *205:57 0.000103646
46 *161:30 *205:22 1.44356e-05
47 *161:46 *205:22 0.000132675
48 *166:14 *1068:A 0.00266337
49 *175:12 *205:22 0.000169718
50 *190:30 *1068:A 0.00028123
51 *197:46 *1068:A 0.00019635
*RES
1 *1067:Y *205:22 35.0812 
2 *205:22 *205:24 21.8304 
3 *205:24 *1068:A 29.3682 
4 *205:24 *205:57 46.5357 
5 *205:57 *1076:B1 14.3357 
6 *205:22 *1077:C1 19.9518 
*END

*D_NET *206 0.0192719
*CONN
*I *1080:A I *D sky130_fd_sc_hd__nand2_1
*I *1078:B1 I *D sky130_fd_sc_hd__o31ai_2
*I *1074:B1 I *D sky130_fd_sc_hd__o31ai_1
*I *1072:A I *D sky130_fd_sc_hd__nand2_1
*I *1068:Y O *D sky130_fd_sc_hd__inv_2
*CAP
1 *1080:A 0.000164859
2 *1078:B1 0.000262694
3 *1074:B1 0.00125911
4 *1072:A 0.000142434
5 *1068:Y 0.000915946
6 *206:47 0.00169844
7 *206:34 0.00202711
8 *206:18 0.00278886
9 *1072:A *935:A 0.000220937
10 *1072:A *1192:A 8.33274e-05
11 *1074:B1 *1146:A0 0.000219289
12 *1074:B1 *230:61 1.24368e-05
13 *1074:B1 *237:45 5.87086e-05
14 *1074:B1 *237:53 4.61191e-05
15 *1078:B1 *973:A1 0.00060396
16 *1078:B1 *257:14 0.000480489
17 *1078:B1 *257:49 0.000320268
18 *206:18 *240:14 6.91215e-06
19 *206:18 *260:42 0.00126473
20 *206:34 *1128:A0 0.00105467
21 *206:34 *1192:A 5.96049e-05
22 *206:34 *223:38 9.11438e-05
23 *206:34 *250:78 4.61565e-05
24 *206:47 *257:49 0.000336697
25 *976:A2 *206:34 0.00054343
26 *976:B1 *206:18 0.000673823
27 *989:B_N *206:18 0
28 *1035:A2_N *1074:B1 9.77118e-05
29 *1035:B1 *1074:B1 1.71482e-05
30 *1037:A2 *1080:A 0.000105116
31 *1044:B *206:18 4.22135e-06
32 *1063:A *1074:B1 3.63423e-05
33 *1063:B *1074:B1 3.0938e-05
34 *1153:A *206:18 6.68591e-05
35 *1167:D *206:18 7.57394e-05
36 *1182:RESET_B *1080:A 1.33343e-05
37 *1182:RESET_B *206:34 0.000563292
38 *50:18 *1072:A 2.47631e-06
39 *63:30 *206:34 0.000153614
40 *77:6 *1072:A 0.00034775
41 *81:142 *1080:A 3.0114e-05
42 *81:142 *206:18 1.02301e-05
43 *81:142 *206:34 0.000293495
44 *84:130 *206:34 5.32964e-05
45 *89:22 *206:34 0
46 *90:24 *206:34 7.28356e-05
47 *116:60 *1078:B1 1.98839e-05
48 *118:59 *206:34 0.000164377
49 *121:50 *206:18 0.000116213
50 *155:82 *1074:B1 0.000851688
51 *176:12 *1080:A 1.77294e-05
52 *180:39 *1080:A 9.71197e-05
53 *189:34 *206:18 6.47358e-05
54 *201:80 *1078:B1 0.000246819
55 *201:80 *206:47 0.000336697
*RES
1 *1068:Y *206:18 41.6393 
2 *206:18 *206:34 39.7679 
3 *206:34 *1072:A 13.55 
4 *206:34 *206:47 9.17857 
5 *206:47 *1074:B1 30.925 
6 *206:47 *1078:B1 23.1393 
7 *206:18 *1080:A 13.2821 
*END

*D_NET *207 0.0236866
*CONN
*I *1070:B1 I *D sky130_fd_sc_hd__a21oi_2
*I *1079:A2 I *D sky130_fd_sc_hd__a211o_1
*I *1069:Y O *D sky130_fd_sc_hd__inv_2
*CAP
1 *1070:B1 7.33724e-05
2 *1079:A2 0.000702658
3 *1069:Y 0.00116716
4 *207:38 0.00501464
5 *207:18 0.00555251
6 *1070:B1 *1078:A3 6.47471e-05
7 *1070:B1 *208:8 5.20751e-05
8 *1070:B1 *263:18 5.20751e-05
9 *1079:A2 *1180:CLK 0.000157848
10 *1079:A2 *233:143 0.000721141
11 *1079:A2 *233:176 0.000184741
12 *207:18 *223:18 0.000684661
13 *207:38 *1132:A 0
14 *207:38 *219:20 0
15 *207:38 *267:40 6.05161e-06
16 *954:B_N *207:38 0
17 *958:B *207:18 5.0737e-05
18 *985:C1 *207:38 8.44271e-06
19 *1008:A2 *207:38 0.000113531
20 *1008:C1 *207:38 0.000112796
21 *1029:B1_N *207:18 3.40128e-05
22 *1067:A *1079:A2 2.02727e-05
23 *1097:A2 *207:18 9.28819e-06
24 *1132:B *207:38 7.65888e-05
25 *39:28 *207:18 0.000400038
26 *46:20 *207:18 0.00159019
27 *46:20 *207:38 8.88417e-05
28 *69:14 *1079:A2 4.04691e-06
29 *82:162 *207:18 2.18964e-05
30 *82:185 *207:38 0.000125197
31 *90:106 *207:38 0.000539276
32 *93:12 *207:38 0.000652762
33 *93:22 *207:38 0.000818744
34 *93:37 *207:38 4.17433e-05
35 *97:20 *207:18 3.72901e-05
36 *106:80 *1079:A2 0.00075588
37 *108:65 *207:18 0.000124782
38 *121:18 *207:18 0.000469434
39 *128:44 *207:18 0.00104241
40 *128:44 *207:38 9.44503e-05
41 *153:45 *207:38 0.0001774
42 *161:30 *1079:A2 0.000151069
43 *167:38 *207:18 0.000117424
44 *193:10 *207:18 0.000450935
45 *201:100 *207:38 0.000406111
46 *203:24 *1079:A2 0.000416973
47 *205:22 *1079:A2 0.000300333
*RES
1 *1069:Y *207:18 36.9139 
2 *207:18 *207:38 46.6751 
3 *207:38 *1079:A2 33.9696 
4 *207:18 *1070:B1 19.0404 
*END

*D_NET *208 0.019291
*CONN
*I *1079:C1 I *D sky130_fd_sc_hd__a211o_1
*I *1071:B_N I *D sky130_fd_sc_hd__or2b_1
*I *1078:A3 I *D sky130_fd_sc_hd__o31ai_2
*I *1070:Y O *D sky130_fd_sc_hd__a21oi_2
*CAP
1 *1079:C1 0.000483639
2 *1071:B_N 0.0003432
3 *1078:A3 0.0010864
4 *1070:Y 4.40125e-05
5 *208:81 0.0018102
6 *208:75 0.00186989
7 *208:8 0.00201694
8 *1071:B_N *1122:A1 0.000311818
9 *1071:B_N *253:8 0.000386462
10 *1071:B_N *259:50 5.33005e-05
11 *1078:A3 *973:A1 5.49544e-05
12 *1078:A3 *1020:A 0.000292769
13 *1078:A3 *1097:A1 3.2674e-06
14 *1078:A3 *1097:B2 2.6032e-06
15 *1078:A3 *1100:B 0.00017254
16 *1078:A3 *1148:A0 0
17 *1078:A3 *245:14 2.01732e-05
18 *1078:A3 *251:16 7.31784e-05
19 *1078:A3 *257:14 5.33005e-05
20 *1079:C1 *210:26 0.000873108
21 *1079:C1 *212:32 2.42516e-05
22 *1079:C1 *228:24 2.61494e-05
23 *208:8 *263:18 2.93863e-05
24 *208:75 *977:B 0.000427774
25 *208:75 *1020:A 0.000124243
26 *208:75 *1054:A 6.30931e-05
27 *208:75 *1075:A1 0.000725384
28 *208:75 *236:194 0.000861767
29 *208:75 *267:26 0.000299197
30 *208:75 *271:43 0.000407461
31 *208:81 *1171:CLK 0.000184655
32 *208:81 *253:8 0.000340464
33 *208:81 *254:10 3.76782e-05
34 *944:B *208:81 1.95498e-05
35 *953:C1 *1078:A3 6.47471e-05
36 *953:C1 *208:75 0.000180072
37 *985:C1 *1071:B_N 0.000361972
38 *985:C1 *208:81 0.000590492
39 *1023:A1 *1079:C1 3.22304e-05
40 *1026:A0 *1079:C1 0.000281066
41 *1028:A1 *1079:C1 0.000259749
42 *1031:B *1078:A3 9.00182e-05
43 *1042:A1 *1078:A3 0.000127392
44 *1058:D *1078:A3 0
45 *1070:B1 *1078:A3 6.47471e-05
46 *1070:B1 *208:8 5.20751e-05
47 *1071:A *1071:B_N 5.0396e-05
48 *1073:A *1079:C1 8.47484e-06
49 *1079:A1 *1079:C1 1.31839e-05
50 *1079:B1 *1079:C1 4.20178e-05
51 *1097:B1 *1078:A3 5.19842e-06
52 *1132:B *208:81 0.00131267
53 *58:28 *208:75 0.000610586
54 *76:32 *1078:A3 1.6734e-05
55 *97:20 *1078:A3 2.8069e-05
56 *98:42 *1079:C1 0.000124245
57 *104:22 *1079:C1 1.31516e-05
58 *106:57 *1078:A3 4.15526e-05
59 *116:98 *1071:B_N 0.000232155
60 *119:30 *1078:A3 0
61 *120:39 *1071:B_N 5.49544e-05
62 *122:62 *1078:A3 0.000161886
63 *155:143 *1079:C1 2.42376e-05
64 *167:38 *208:8 0.000185124
65 *174:57 *208:75 4.34677e-05
66 *174:73 *208:75 9.58689e-05
67 *188:14 *1078:A3 7.14469e-05
68 *201:90 *208:75 0
69 *201:100 *208:81 0.000454213
70 *201:116 *208:81 7.39714e-05
*RES
1 *1070:Y *208:8 15.5679 
2 *208:8 *1078:A3 44.0411 
3 *208:8 *208:75 36.1429 
4 *208:75 *208:81 25.0714 
5 *208:81 *1071:B_N 23.8714 
6 *208:81 *1079:C1 35.0143 
*END

*D_NET *209 0.0132541
*CONN
*I *1072:B I *D sky130_fd_sc_hd__nand2_1
*I *1076:A2 I *D sky130_fd_sc_hd__a31o_1
*I *1071:X O *D sky130_fd_sc_hd__or2b_1
*CAP
1 *1072:B 0.000186585
2 *1076:A2 0
3 *1071:X 0
4 *209:59 0.0022059
5 *209:18 0.000975763
6 *209:4 0.00299508
7 *1072:B *1100:B 2.95495e-05
8 *209:18 *1136:A 2.36238e-05
9 *209:18 *250:29 0.000480072
10 *209:18 *255:20 0.000309101
11 *209:59 *1187:A 2.97456e-05
12 *209:59 *227:51 0.000244432
13 *209:59 *234:16 8.33571e-05
14 *209:59 *236:49 0
15 *209:59 *259:50 0.000515454
16 *1013:A *209:18 0.00060052
17 *1025:A2 *209:59 1.18544e-05
18 *1026:S *209:59 0.000627097
19 *1028:B1 *209:18 0.000616547
20 *1039:B1 *209:59 2.80052e-05
21 *1076:A1 *209:18 4.62949e-05
22 *1130:C *209:18 3.83535e-05
23 *1138:B *209:18 2.14658e-05
24 *1139:A *209:18 0.00042807
25 *36:22 *209:18 0.000178847
26 *77:117 *1072:B 0.000164633
27 *93:53 *209:59 9.76587e-05
28 *95:73 *1072:B 0.000133404
29 *96:28 *209:18 0.000177857
30 *104:22 *209:18 0.00026353
31 *109:26 *209:18 0.000223476
32 *120:39 *209:59 2.18985e-05
33 *121:85 *209:59 0.000222719
34 *145:41 *209:59 7.14469e-05
35 *145:75 *209:59 0
36 *151:27 *209:18 9.60939e-05
37 *151:27 *209:59 0.000119502
38 *152:22 *209:18 0.000182939
39 *178:18 *209:59 8.6229e-06
40 *191:97 *1072:B 1.03107e-05
41 *191:97 *209:59 0.000226439
42 *198:24 *209:59 0.000146585
43 *198:28 *1072:B 0
44 *201:16 *209:59 0.000411261
*RES
1 *1071:X *209:4 9.3 
2 *209:4 *209:18 43.8929 
3 *209:18 *1076:A2 9.3 
4 *209:4 *209:59 48.9911 
5 *209:59 *1072:B 17.6482 
*END

*D_NET *210 0.0142084
*CONN
*I *1074:A1 I *D sky130_fd_sc_hd__o31ai_1
*I *1075:A1 I *D sky130_fd_sc_hd__a21o_1
*I *1077:A1 I *D sky130_fd_sc_hd__a211o_1
*I *1073:Y O *D sky130_fd_sc_hd__inv_2
*CAP
1 *1074:A1 1.92543e-05
2 *1075:A1 0.00142719
3 *1077:A1 0.000160632
4 *1073:Y 0.00161218
5 *210:49 0.00172757
6 *210:28 0.000441754
7 *210:26 0.00161218
8 *1075:A1 *1152:A1 0
9 *1075:A1 *1158:CLK 9.21418e-06
10 *1075:A1 *234:112 8.1546e-05
11 *1075:A1 *235:86 0.000313115
12 *210:26 *1041:A0 0.000363675
13 *210:26 *1186:A 5.65367e-05
14 *210:26 *228:24 9.20464e-06
15 *210:26 *236:39 0.00031292
16 *949:B *1075:A1 1.16198e-05
17 *961:A *1075:A1 0.000681304
18 *987:B1 *1077:A1 6.05161e-06
19 *1023:A1 *210:26 0.000177291
20 *1026:A0 *210:26 0.000219971
21 *1035:B1 *1074:A1 1.58163e-05
22 *1035:B1 *210:49 8.02717e-05
23 *1077:B1 *1077:A1 8.49116e-05
24 *1077:C1 *1077:A1 5.49489e-05
25 *1079:C1 *210:26 0.000873108
26 *1161:D *210:26 6.54117e-05
27 *1162:D *1075:A1 0.000338758
28 *1168:D *1074:A1 4.17433e-05
29 *1168:D *210:49 0.000261799
30 *1185:A *210:26 0.000221957
31 *54:12 *1077:A1 0.000141445
32 *54:12 *210:49 0.000348703
33 *77:49 *1075:A1 3.23265e-05
34 *87:32 *1075:A1 1.9188e-05
35 *95:18 *210:26 4.04618e-05
36 *99:43 *1075:A1 0.000380336
37 *104:22 *210:26 6.35864e-05
38 *110:53 *1075:A1 1.8038e-05
39 *126:10 *1077:A1 5.74499e-06
40 *129:26 *1077:A1 0.000139928
41 *129:26 *210:49 0.000356429
42 *141:14 *1075:A1 0.000128484
43 *154:18 *1075:A1 3.05988e-05
44 *161:30 *210:26 0.000203463
45 *170:35 *1075:A1 0
46 *174:112 *1077:A1 0.000228725
47 *205:22 *210:26 6.35864e-05
48 *208:75 *1075:A1 0.000725384
*RES
1 *1073:Y *210:26 46.2792 
2 *210:26 *210:28 4.5 
3 *210:28 *1077:A1 18.4786 
4 *210:28 *210:49 12.0714 
5 *210:49 *1075:A1 44.3536 
6 *210:49 *1074:A1 9.83571 
*END

*D_NET *211 0.0205705
*CONN
*I *1076:A3 I *D sky130_fd_sc_hd__a31o_1
*I *1075:X O *D sky130_fd_sc_hd__a21o_1
*CAP
1 *1076:A3 0.000446191
2 *1075:X 0.00337993
3 *211:30 0.000990785
4 *211:18 0.00392453
5 *1076:A3 *250:29 7.53537e-05
6 *1076:A3 *271:20 1.28171e-05
7 *211:18 *1089:A0 0.000109585
8 *211:18 *1098:A1 0.000364164
9 *211:18 *226:30 0.0005
10 *211:18 *238:12 5.47839e-05
11 *211:18 *271:24 0.000492463
12 *211:30 *1102:B 6.05161e-06
13 *1061:A2 *211:18 0.000191826
14 *1076:B1 *1076:A3 5.68713e-05
15 *1137:A *211:18 0.000266156
16 *44:22 *1076:A3 8.72105e-05
17 *70:32 *211:18 0.000302991
18 *70:32 *211:30 0.00022054
19 *82:185 *211:18 5.59676e-05
20 *107:12 *211:18 0.000108068
21 *109:26 *1076:A3 9.24685e-05
22 *136:24 *211:18 1.27892e-05
23 *146:26 *211:18 0.000102146
24 *147:16 *211:30 6.37883e-06
25 *152:22 *1076:A3 0.00120077
26 *152:42 *211:18 0.000292543
27 *158:12 *211:30 0.00101457
28 *168:55 *211:30 0.00142111
29 *173:38 *211:30 0.000955727
30 *185:55 *211:18 0.00204986
31 *187:20 *211:30 0.00141769
32 *189:34 *211:18 1.8995e-06
33 *189:34 *211:30 0.000194212
34 *190:30 *211:18 0.000162008
*RES
1 *1075:X *211:18 46.9732 
2 *211:18 *211:30 45.0089 
3 *211:30 *1076:A3 21.3536 
*END

*D_NET *212 0.0190085
*CONN
*I *1080:B I *D sky130_fd_sc_hd__nand2_1
*I *1079:X O *D sky130_fd_sc_hd__a211o_1
*CAP
1 *1080:B 0
2 *1079:X 0.00176573
3 *212:60 0.00309071
4 *212:32 0.00485643
5 *212:32 *1041:A0 9.23226e-05
6 *212:60 *223:38 8.76953e-05
7 seg[2] *212:60 3.05763e-05
8 seg[3] *212:60 0
9 *988:A *212:60 9.289e-05
10 *992:A1 *212:60 1.28958e-05
11 *1028:A1 *212:32 9.25711e-05
12 *1037:A1 *212:60 1.02504e-05
13 *1050:A0 *212:60 6.32026e-05
14 *1050:S *212:60 1.90936e-05
15 *1079:C1 *212:32 2.42516e-05
16 *1093:B1 *212:60 0
17 *1172:D *212:60 0.000140886
18 *1177:D *212:32 0.00156518
19 *1185:A *212:32 0.000290802
20 *45:26 *212:60 1.75318e-05
21 *48:36 *212:60 0.000143064
22 *57:36 *212:60 1.3294e-05
23 *64:68 *212:60 0
24 *76:32 *212:60 0.00026303
25 *81:92 *212:60 0.00112632
26 *82:18 *212:60 0.000233567
27 *90:24 *212:60 0.000195165
28 *90:70 *212:32 0.000326836
29 *101:26 *212:60 0
30 *102:16 *212:32 8.19176e-05
31 *108:65 *212:60 4.21517e-05
32 *113:16 *212:60 6.43714e-06
33 *115:42 *212:32 8.37616e-05
34 *121:85 *212:60 0.00181513
35 *125:32 *212:60 0.000795991
36 *126:18 *212:32 0.000261223
37 *128:12 *212:60 7.14759e-05
38 *129:26 *212:32 0.00026274
39 *130:78 *212:60 0.00012211
40 *155:143 *212:32 0.000137444
41 *163:18 *212:32 0.000664337
42 *189:34 *212:60 0
43 *205:22 *212:32 0.000109482
*RES
1 *1079:X *212:32 43.436 
2 *212:32 *212:60 47.044 
3 *212:60 *1080:B 9.3 
*END

*D_NET *213 0.00341638
*CONN
*I *1082:A I *D sky130_fd_sc_hd__clkbuf_1
*I *1081:X O *D sky130_fd_sc_hd__clkbuf_1
*CAP
1 *1082:A 0.00074612
2 *1081:X 0.00074612
3 *1082:A *1103:A1 1.12578e-05
4 *1082:A *238:39 5.49489e-05
5 *1082:A *238:70 1.38323e-05
6 *1114:A *1082:A 0.000347025
7 *1124:A0 *1082:A 0.000118451
8 *1177:D *1082:A 9.41642e-05
9 *28:16 *1082:A 0.000690711
10 *161:46 *1082:A 0.000352036
11 *174:124 *1082:A 0.000241717
*RES
1 *1081:X *1082:A 45.0643 
*END

*D_NET *214 0.000580483
*CONN
*I *1083:B I *D sky130_fd_sc_hd__and2_1
*I *1082:X O *D sky130_fd_sc_hd__clkbuf_1
*CAP
1 *1083:B 0.000175017
2 *1082:X 0.000175017
3 *19:12 *1083:B 0.00015244
4 *140:12 *1083:B 7.80092e-05
*RES
1 *1082:X *1083:B 30.9036 
*END

*D_NET *215 0.0175687
*CONN
*I *1084:A I *D sky130_fd_sc_hd__buf_2
*I *1083:X O *D sky130_fd_sc_hd__and2_1
*CAP
1 *1084:A 0.000269272
2 *1083:X 0.000931195
3 *215:14 0.00213483
4 *215:12 0.00279675
5 *1084:A *216:14 0
6 *215:12 *1103:A0 1.94945e-05
7 *215:12 *1124:A1 3.48742e-05
8 *215:12 *216:20 0
9 *215:12 *239:22 9.66977e-05
10 *215:12 *239:39 0.00011163
11 *978:B *215:14 0.0013317
12 *1030:B *215:14 0.000500858
13 *1065:A *215:14 0.000160396
14 *28:24 *215:12 0.00112903
15 *42:10 *215:12 0
16 *45:26 *215:14 0.000411346
17 *79:12 *215:14 0.0019747
18 *139:18 *215:12 0.000315366
19 *140:12 *215:12 0.00044246
20 *161:46 *215:14 9.93955e-05
21 *169:16 *215:14 0.00010096
22 *180:55 *215:14 0.00170009
23 *180:65 *215:14 0.00293104
24 *197:46 *1084:A 7.66099e-05
*RES
1 *1083:X *215:12 42.4429 
2 *215:12 *215:14 60.0893 
3 *215:14 *1084:A 22.675 
*END

*D_NET *216 0.0390511
*CONN
*I *1089:S I *D sky130_fd_sc_hd__mux2_1
*I *1087:S I *D sky130_fd_sc_hd__mux2_1
*I *1085:S I *D sky130_fd_sc_hd__mux2_1
*I *1103:S I *D sky130_fd_sc_hd__mux2_1
*I *1091:S I *D sky130_fd_sc_hd__mux2_1
*I *1084:X O *D sky130_fd_sc_hd__buf_2
*CAP
1 *1089:S 0
2 *1087:S 0.000185529
3 *1085:S 0.00256512
4 *1103:S 0.000503945
5 *1091:S 0
6 *1084:X 0
7 *216:85 0.000815595
8 *216:81 0.00163248
9 *216:79 0.00204441
10 *216:20 0.00247492
11 *216:14 0.00625222
12 *216:4 0.00275811
13 *1085:S *238:70 4.65519e-05
14 *1085:S *258:22 2.91853e-05
15 *1103:S *1156:A 0.000366486
16 *1103:S *229:14 0
17 *1103:S *271:20 0.000127484
18 *216:14 *1167:CLK 0
19 *216:14 *260:42 0.00040015
20 *216:20 *1156:A 5.54817e-06
21 seg[4] *216:79 0
22 seg[5] *216:79 8.04948e-05
23 *981:A3 *216:20 0.000980021
24 *988:B *216:79 1.01912e-05
25 *990:A *1085:S 0.000773873
26 *1025:A3 *1085:S 0.00015129
27 *1027:A *1085:S 2.29194e-05
28 *1030:B *216:20 0
29 *1044:B *216:79 0.000255574
30 *1084:A *216:14 0
31 *1085:A1 *1085:S 5.49544e-05
32 *1089:A1 *1087:S 0.000358091
33 *23:28 *216:14 0
34 *24:26 *1085:S 4.79414e-05
35 *28:32 *216:81 0.000135187
36 *30:14 *216:85 0
37 *30:16 *216:81 0.00447492
38 *42:10 *216:20 0.000136927
39 *43:26 *1085:S 0.000514961
40 *82:12 *216:79 0
41 *117:12 *216:14 0
42 *127:31 *216:14 0
43 *135:14 *216:81 0
44 *135:14 *216:85 0.000272338
45 *136:24 *216:85 0.000167457
46 *150:44 *216:79 4.19682e-05
47 *150:48 *216:81 0.00333426
48 *154:18 *1085:S 0.000382132
49 *166:14 *216:79 0
50 *168:55 *216:20 0
51 *184:14 *216:79 0.000144354
52 *186:28 *216:79 0.000485555
53 *187:20 *216:20 0
54 *190:30 *216:20 0.000853136
55 *197:46 *216:14 0
56 *201:33 *1085:S 2.45908e-05
57 *203:24 *216:14 0.00286326
58 *203:24 *216:20 0.00227699
59 *215:12 *216:20 0
*RES
1 *1084:X *216:4 9.3 
2 *216:4 *216:14 25.826 
3 *216:14 *216:20 23.7724 
4 *216:20 *1091:S 13.8 
5 *216:20 *1103:S 24.1571 
6 *216:14 *1085:S 31.4843 
7 *216:4 *216:79 15.5245 
8 *216:79 *216:81 56.4375 
9 *216:81 *216:85 16.125 
10 *216:85 *1087:S 13.5321 
11 *216:85 *1089:S 9.3 
*END

*D_NET *217 0.00690957
*CONN
*I *1086:A I *D sky130_fd_sc_hd__clkbuf_1
*I *1085:X O *D sky130_fd_sc_hd__mux2_1
*CAP
1 *1086:A 0.00110362
2 *1085:X 0.000831563
3 *217:18 0.00193518
4 *1086:A *227:18 0.000492753
5 *1086:A *255:20 8.85532e-05
6 *987:B1 *217:18 0.000654265
7 *1000:B1 *1086:A 6.35136e-05
8 *1034:B1 *1086:A 0.000136676
9 *36:22 *217:18 9.55468e-05
10 *54:12 *217:18 0.000545923
11 *66:20 *217:18 4.22135e-06
12 *124:38 *217:18 0.000529545
13 *137:20 *217:18 6.09762e-05
14 *169:16 *1086:A 5.33005e-05
15 *169:35 *1086:A 0.000154793
16 *173:20 *1086:A 0.000107698
17 *205:24 *217:18 5.14357e-05
*RES
1 *1085:X *217:18 44.1393 
2 *217:18 *1086:A 27.6929 
*END

*D_NET *218 0.0108397
*CONN
*I *1088:A I *D sky130_fd_sc_hd__clkbuf_1
*I *1087:X O *D sky130_fd_sc_hd__mux2_1
*CAP
1 *1088:A 0.000334939
2 *1087:X 7.49893e-05
3 *218:16 0.00190443
4 *218:8 0.00164448
5 *1088:A *1003:C 0.000217848
6 *1088:A *1117:D_N 5.33005e-05
7 *218:16 *1003:C 0.000135028
8 *218:16 *1041:A0 5.49995e-05
9 *218:16 *1087:A0 5.29794e-05
10 *946:B *218:16 4.038e-06
11 *1003:D *218:16 0
12 *1018:A *1088:A 0.000610801
13 *1041:A1 *218:16 0.000389365
14 *1089:A1 *218:8 4.97967e-05
15 *1089:A1 *218:16 4.10056e-05
16 *50:18 *218:16 1.45765e-05
17 *55:14 *1088:A 0.000161159
18 *73:16 *218:16 5.01463e-05
19 *77:117 *1088:A 0.000177596
20 *77:117 *218:16 9.85599e-06
21 *82:30 *1088:A 0.000162921
22 *88:70 *218:16 0.00103633
23 *118:59 *218:16 0.000123281
24 *122:62 *218:16 0.000717403
25 *130:78 *218:16 4.38058e-05
26 *143:16 *218:16 0.000275415
27 *174:29 *218:16 0.00119419
28 *180:8 *218:16 5.33005e-05
29 *197:16 *218:16 0.00019608
30 *197:28 *218:16 0.00101557
31 *197:46 *218:16 4.00349e-05
*RES
1 *1087:X *218:8 14.7464 
2 *218:8 *218:16 47.2679 
3 *218:16 *1088:A 19.425 
*END

*D_NET *219 0.0206271
*CONN
*I *1090:A I *D sky130_fd_sc_hd__clkbuf_1
*I *1089:X O *D sky130_fd_sc_hd__mux2_1
*CAP
1 *1090:A 0.000158966
2 *1089:X 0.0053659
3 *219:20 0.00552487
4 *219:20 *1089:A0 1.00887e-05
5 *219:20 *1091:A0 0
6 *219:20 *1103:A0 0.000156857
7 *219:20 *1124:A1 0.00118152
8 *219:20 *221:37 0.00613994
9 *219:20 *221:43 0.000228292
10 *981:A3 *1090:A 2.14378e-05
11 *981:A3 *219:20 0
12 *1051:A0 *1090:A 0.000138271
13 *1089:A1 *219:20 0
14 *1120:S *1090:A 0.000443889
15 *19:12 *1090:A 2.2355e-05
16 *70:32 *219:20 0
17 *82:185 *219:20 0
18 *140:12 *1090:A 0.000310874
19 *168:51 *219:20 0.000907776
20 *179:34 *219:20 1.60988e-05
21 *207:38 *219:20 0
*RES
1 *1089:X *219:20 47.9959 
2 *219:20 *1090:A 23.5582 
*END

*D_NET *220 0.0153185
*CONN
*I *1092:A I *D sky130_fd_sc_hd__buf_1
*I *1091:X O *D sky130_fd_sc_hd__mux2_1
*CAP
1 *1092:A 0.00130332
2 *1091:X 0.00214274
3 *220:24 0.00344606
4 *1092:A *252:20 4.65519e-05
5 *220:24 *1122:A1 0.000175892
6 *220:24 *1156:A 2.85321e-05
7 *937:A *1092:A 3.59846e-05
8 *1019:B *220:24 2.59355e-05
9 *1028:B1 *220:24 7.54847e-05
10 *1044:B *1092:A 0.00157259
11 *1044:B *220:24 0.00111237
12 *1068:A *1092:A 0.000666621
13 *1068:A *220:24 0.000634834
14 *1091:A1 *220:24 9.25852e-05
15 *1124:S *220:24 0.000347166
16 *1167:D *1092:A 0.0001556
17 *19:12 *220:24 9.84729e-05
18 *45:26 *220:24 8.9576e-05
19 *56:12 *1092:A 5.33334e-05
20 *56:22 *1092:A 5.36451e-05
21 *60:14 *220:24 0.0017357
22 *82:79 *220:24 0
23 *116:98 *220:24 0
24 *126:28 *1092:A 1.30182e-05
25 *151:10 *220:24 1.44519e-05
26 *157:32 *220:24 0.000714919
27 *187:20 *220:24 0.000356011
28 *190:30 *220:24 0.000111598
29 *191:32 *220:24 0.000215503
*RES
1 *1091:X *220:24 48.7195 
2 *220:24 *1092:A 27.5029 
*END

*D_NET *221 0.034203
*CONN
*I *1101:B I *D sky130_fd_sc_hd__and2b_1
*I *275:DIODE I *D sky130_fd_sc_hd__diode_2
*I *1100:A_N I *D sky130_fd_sc_hd__and2b_1
*I *1093:Y O *D sky130_fd_sc_hd__a21oi_2
*CAP
1 *1101:B 0.000319884
2 *275:DIODE 1.32862e-05
3 *1100:A_N 0.000412421
4 *1093:Y 0.00064871
5 *221:43 0.00422148
6 *221:37 0.00686956
7 *221:12 0.00404238
8 *1101:B *1179:CLK 1.01912e-05
9 *221:12 *245:14 2.16935e-05
10 *221:43 *1091:A0 0.000284297
11 *221:43 *1103:A0 0.000202565
12 *221:43 *1156:A 0.000154703
13 *221:43 *238:12 0.00028732
14 *981:A3 *221:43 0.00202927
15 *1001:A *221:43 0.000124005
16 *1031:B *1100:A_N 7.57312e-05
17 *1055:A3 *221:37 0
18 *1093:B1 *221:12 5.52531e-05
19 *1094:A1 *1100:A_N 0.000152097
20 *1095:A2 *1100:A_N 1.94945e-05
21 *1184:RESET_B *221:43 0.00013415
22 *28:24 *1101:B 2.11419e-05
23 *42:10 *275:DIODE 2.06178e-05
24 *42:10 *221:43 0.000324358
25 *56:22 *1100:A_N 9.4386e-05
26 *56:22 *221:12 0.000301597
27 *65:28 *221:37 0.000166028
28 *70:32 *221:43 0.000104671
29 *80:38 *1101:B 0
30 *84:26 *221:37 0
31 *106:37 *1100:A_N 0.000695098
32 *106:37 *221:12 0.000642856
33 *108:49 *221:12 2.06178e-05
34 *119:30 *1100:A_N 4.01462e-06
35 *123:80 *221:37 0.00109589
36 *147:24 *1101:B 0.000112437
37 *147:24 *221:43 2.72835e-05
38 *178:71 *1100:A_N 0.000143375
39 *190:30 *221:43 0.0020761
40 *194:14 *221:37 0.00154369
41 *196:31 *1100:A_N 0.000362097
42 *219:20 *221:37 0.00613994
43 *219:20 *221:43 0.000228292
*RES
1 *1093:Y *221:12 19.1913 
2 *221:12 *1100:A_N 20.044 
3 *221:12 *221:37 46.4904 
4 *221:37 *221:43 14.6916 
5 *221:43 *275:DIODE 17.4868 
6 *221:43 *1101:B 18.1103 
*END

*D_NET *222 0.012159
*CONN
*I *1095:B1 I *D sky130_fd_sc_hd__o21a_1
*I *1094:Y O *D sky130_fd_sc_hd__a21oi_1
*CAP
1 *1095:B1 0
2 *1094:Y 0.00274338
3 *222:30 0.00274338
4 *222:30 *1097:B2 0.000107157
5 *222:30 *223:18 0.000107693
6 *949:B *222:30 0.00026854
7 *953:A2 *222:30 1.90936e-05
8 *953:B1 *222:30 0.000218719
9 *953:C1 *222:30 0.00010994
10 *1021:B1 *222:30 0.00141386
11 *1137:A *222:30 8.65125e-05
12 *1142:A *222:30 0.000840021
13 *81:28 *222:30 0.000503755
14 *104:22 *222:30 8.32904e-05
15 *108:49 *222:30 0.000195174
16 *120:76 *222:30 0.000252568
17 *130:39 *222:30 0.00028963
18 *158:20 *222:30 0.000440529
19 *159:18 *222:30 1.50961e-05
20 *160:20 *222:30 0.00172062
*RES
1 *1094:Y *222:30 47.1654 
2 *222:30 *1095:B1 9.3 
*END

*D_NET *223 0.0190654
*CONN
*I *1099:A I *D sky130_fd_sc_hd__xor2_1
*I *1095:X O *D sky130_fd_sc_hd__o21a_1
*CAP
1 *1099:A 0
2 *1095:X 0.00136037
3 *223:54 0.00140522
4 *223:38 0.0027355
5 *223:18 0.00269065
6 *223:38 *1176:CLK 0.000163161
7 *223:38 *242:24 0
8 *223:54 *1104:A 3.2687e-05
9 *223:54 *227:51 0.000179029
10 *223:54 *258:24 0.000114847
11 *223:54 *258:34 9.54798e-06
12 *223:54 *268:30 7.38942e-05
13 *976:A2 *223:38 0.000951378
14 *988:B *223:38 0.000144038
15 *999:A2 *223:54 0.000932065
16 *1010:A_N *223:38 0.000223738
17 *1058:D *223:18 0.00050728
18 *1069:A *223:18 0.00017754
19 *1095:A1 *223:18 0.000180066
20 *1095:A2 *223:18 2.12087e-05
21 *31:28 *223:54 0.00011333
22 *41:20 *223:54 7.23766e-05
23 *51:14 *223:38 0.00132411
24 *57:22 *223:38 2.15859e-05
25 *82:18 *223:38 6.28149e-06
26 *82:154 *223:18 4.58194e-05
27 *83:48 *223:38 0.00019249
28 *83:48 *223:54 0.00072987
29 *89:22 *223:38 0
30 *108:65 *223:18 2.10838e-05
31 *108:65 *223:38 0.000745219
32 *110:70 *223:18 9.56046e-05
33 *112:18 *223:18 1.98839e-05
34 *112:57 *223:38 0.00072311
35 *112:57 *223:54 4.4873e-05
36 *124:38 *223:54 0.000136676
37 *125:32 *223:54 0.000591941
38 *138:34 *223:54 0.000140769
39 *159:18 *223:18 0.000237757
40 *176:12 *223:38 0.00024868
41 *193:10 *223:18 0.000680525
42 *206:34 *223:38 9.11438e-05
43 *207:18 *223:18 0.000684661
44 *212:60 *223:38 8.76953e-05
45 *222:30 *223:18 0.000107693
*RES
1 *1095:X *223:18 46.7107 
2 *223:18 *223:38 46.5357 
3 *223:38 *223:54 43.1071 
4 *223:54 *1099:A 9.3 
*END

*D_NET *224 0.0056308
*CONN
*I *1098:A2 I *D sky130_fd_sc_hd__o21ai_2
*I *1096:X O *D sky130_fd_sc_hd__buf_1
*CAP
1 *1098:A2 0.000448757
2 *1096:X 0.00111432
3 *224:12 0.00156307
4 *224:12 *238:70 2.42516e-05
5 *224:12 *256:34 0
6 an[2] *224:12 0
7 *958:B *224:12 0
8 *967:A *224:12 0.000114999
9 *980:A *224:12 0.000220029
10 *1096:A *224:12 0.000108531
11 *76:32 *224:12 0.00012797
12 *128:22 *224:12 0
13 *144:20 *224:12 0.000743844
14 *150:60 *224:12 0.00018887
15 *185:55 *224:12 0
16 *185:63 *224:12 0
17 *195:12 *224:12 0.000976161
*RES
1 *1096:X *224:12 46.3893 
2 *224:12 *1098:A2 16.4071 
*END

*D_NET *225 0.00327521
*CONN
*I *1098:B1 I *D sky130_fd_sc_hd__o21ai_2
*I *1097:X O *D sky130_fd_sc_hd__a221o_1
*CAP
1 *1098:B1 0.00090204
2 *1097:X 0.00090204
3 *1098:B1 *977:A_N 0
4 *1098:B1 *1020:A 0.000141784
5 *1098:B1 *267:26 0.000181114
6 *966:A_N *1098:B1 9.41642e-05
7 *966:B *1098:B1 5.33005e-05
8 *982:A *1098:B1 5.25192e-06
9 *982:B *1098:B1 1.76569e-05
10 *1097:A2 *1098:B1 0.000139946
11 *84:26 *1098:B1 1.5976e-05
12 *123:80 *1098:B1 2.97489e-05
13 *159:18 *1098:B1 0.000698279
14 *201:80 *1098:B1 9.39125e-05
*RES
1 *1097:X *1098:B1 44.2429 
*END

*D_NET *226 0.0221669
*CONN
*I *1099:B I *D sky130_fd_sc_hd__xor2_1
*I *1098:Y O *D sky130_fd_sc_hd__o21ai_2
*CAP
1 *1099:B 0
2 *1098:Y 0.00511406
3 *226:30 0.00511406
4 *226:30 *1087:A0 2.11419e-05
5 *226:30 *1089:A0 0.000542564
6 *226:30 *1098:A1 0.00438669
7 *226:30 *259:50 3.91744e-05
8 *1034:A2 *226:30 9.41161e-05
9 *1065:A *226:30 0.000541543
10 *64:88 *226:30 0.000595167
11 *66:20 *226:30 7.66527e-06
12 *85:20 *226:30 0.000552309
13 *98:42 *226:30 0.0015666
14 *124:26 *226:30 1.84044e-05
15 *130:78 *226:30 0.000240026
16 *136:24 *226:30 0.00203317
17 *137:20 *226:30 1.82329e-05
18 *146:26 *226:30 0.000398266
19 *163:18 *226:30 0.00019876
20 *168:49 *226:30 0.000174794
21 *193:10 *226:30 1.01912e-05
22 *211:18 *226:30 0.0005
*RES
1 *1098:Y *226:30 47.4356 
2 *226:30 *1099:B 13.8 
*END

*D_NET *227 0.0171994
*CONN
*I *1100:B I *D sky130_fd_sc_hd__and2b_1
*I *1101:A_N I *D sky130_fd_sc_hd__and2b_1
*I *1099:X O *D sky130_fd_sc_hd__xor2_1
*CAP
1 *1100:B 0.000868338
2 *1101:A_N 0
3 *1099:X 0
4 *227:51 0.00211648
5 *227:18 0.00175776
6 *227:4 0.00300591
7 *1100:B *234:91 0.000223463
8 *1100:B *245:14 9.59532e-06
9 *1100:B *251:16 0
10 *227:18 *239:39 0.00103756
11 *227:18 *239:50 9.75679e-05
12 *227:18 *255:20 8.55871e-05
13 *227:51 *234:91 8.43535e-06
14 *227:51 *250:64 0.000196083
15 *227:51 *250:78 0.000186826
16 *227:51 *255:38 0.000972499
17 *227:51 *258:24 0.000138416
18 *999:A2 *227:51 4.629e-05
19 *1009:A1 *1100:B 2.01732e-05
20 *1034:A2 *227:18 8.11955e-05
21 *1035:A2_N *1100:B 4.23868e-05
22 *1039:B1 *227:51 2.30981e-05
23 *1072:B *1100:B 2.95495e-05
24 *1078:A3 *1100:B 0.00017254
25 *1086:A *227:18 0.000492753
26 *1136:B *227:18 0.000402134
27 *1174:D *227:18 1.82462e-05
28 *21:34 *227:51 8.60828e-05
29 *29:20 *227:18 0.000642199
30 *31:28 *227:51 0.000136891
31 *64:88 *227:18 4.9663e-06
32 *81:92 *227:51 0.000604708
33 *83:48 *227:51 0.000312077
34 *90:34 *1100:B 0.000153168
35 *90:84 *1100:B 0
36 *95:73 *1100:B 0.000166194
37 *104:22 *227:18 0.000408692
38 *116:60 *1100:B 2.06112e-05
39 *121:85 *227:51 0.00011595
40 *124:26 *227:18 9.58126e-05
41 *125:32 *227:51 0.000591671
42 *141:36 *227:51 0.000121463
43 *145:41 *227:51 5.19522e-06
44 *155:82 *1100:B 8.20064e-05
45 *169:16 *227:18 0.000805584
46 *173:20 *227:18 5.73751e-05
47 *178:18 *227:51 1.26641e-05
48 *178:71 *1100:B 0.000229657
49 *192:20 *227:51 6.94952e-05
50 *198:54 *1100:B 2.06178e-05
51 *209:59 *227:51 0.000244432
52 *223:54 *227:51 0.000179029
*RES
1 *1099:X *227:4 9.3 
2 *227:4 *227:18 47.8393 
3 *227:18 *1101:A_N 9.3 
4 *227:4 *227:51 49.2679 
5 *227:51 *1100:B 35.3357 
*END

*D_NET *228 0.0117399
*CONN
*I *1102:A I *D sky130_fd_sc_hd__nor2_1
*I *1100:X O *D sky130_fd_sc_hd__and2b_1
*CAP
1 *1102:A 0
2 *1100:X 0.0027174
3 *228:24 0.0027174
4 *228:24 *950:B 0.000127359
5 *228:24 *1102:B 9.99853e-05
6 *228:24 *1128:A0 5.78667e-05
7 *228:24 *230:61 4.35597e-05
8 *228:24 *236:33 0.00037217
9 *228:24 *242:24 0.000733334
10 *228:24 *251:16 0.000257619
11 *981:B1 *228:24 0.000193263
12 *1023:A1 *228:24 2.95746e-06
13 *1032:A2 *228:24 3.05605e-05
14 *1039:B1 *228:24 0.000139463
15 *1048:A *228:24 0.000239517
16 *1079:B1 *228:24 0.000136062
17 *1079:C1 *228:24 2.61494e-05
18 *1174:D *228:24 0.000183477
19 *23:28 *228:24 0.000128558
20 *43:26 *228:24 0.000495787
21 *77:43 *228:24 5.00087e-06
22 *145:75 *228:24 0.000168255
23 *146:26 *228:24 0.000211393
24 *155:63 *228:24 0.000211173
25 *161:30 *228:24 0.000410229
26 *161:46 *228:24 2.00459e-05
27 *173:38 *228:24 0.000310748
28 *179:34 *228:24 0.00169139
29 *210:26 *228:24 9.20464e-06
*RES
1 *1100:X *228:24 46.9974 
2 *228:24 *1102:A 9.3 
*END

*D_NET *229 0.00876154
*CONN
*I *1102:B I *D sky130_fd_sc_hd__nor2_1
*I *1101:X O *D sky130_fd_sc_hd__and2b_1
*CAP
1 *1102:B 0.00128982
2 *1101:X 0.00112233
3 *229:14 0.00241215
4 *1102:B *1103:A1 5.74784e-05
5 *1102:B *230:61 1.32056e-05
6 *229:14 *239:39 0.000119348
7 *229:14 *271:20 0
8 *1103:S *229:14 0
9 *1174:D *1102:B 0.000102253
10 *22:12 *1102:B 9.58126e-05
11 *57:70 *1102:B 0.00053806
12 *70:32 *229:14 0.00016252
13 *101:26 *229:14 0.000168933
14 *158:12 *229:14 0.00177176
15 *173:38 *229:14 0.000703108
16 *187:20 *229:14 9.87201e-05
17 *211:30 *1102:B 6.05161e-06
18 *228:24 *1102:B 9.99853e-05
*RES
1 *1101:X *229:14 45.5679 
2 *229:14 *1102:B 33.5679 
*END

*D_NET *230 0.0250935
*CONN
*I *1115:A1 I *D sky130_fd_sc_hd__mux2_1
*I *1152:A1 I *D sky130_fd_sc_hd__mux2_1
*I *1128:A0 I *D sky130_fd_sc_hd__mux2_1
*I *1103:A1 I *D sky130_fd_sc_hd__mux2_1
*I *1102:Y O *D sky130_fd_sc_hd__nor2_1
*CAP
1 *1115:A1 0
2 *1152:A1 0.000614949
3 *1128:A0 0.00179486
4 *1103:A1 0.00196346
5 *1102:Y 0
6 *230:86 0.000761968
7 *230:61 0.00374292
8 *230:4 0.0037645
9 *1103:A1 *1103:A0 2.59355e-05
10 *1103:A1 *233:77 0.000136958
11 *1103:A1 *238:70 0.000178759
12 *1128:A0 *1192:A 0.000897888
13 *1128:A0 *242:24 0.000742465
14 *1152:A1 *1115:A0 0.000567379
15 *230:61 *950:B 8.19176e-05
16 *230:61 *1140:A 1.15058e-05
17 *230:61 *1168:CLK 2.356e-05
18 *230:61 *236:39 0
19 *230:61 *252:48 0.000388569
20 *230:61 *253:8 0.000294337
21 *230:86 *242:24 2.06112e-05
22 *949:B *1152:A1 5.00087e-06
23 *956:A *1103:A1 0.00045855
24 *972:B1 *1128:A0 0.000174367
25 *981:B1 *1128:A0 0.000258205
26 *984:B *1152:A1 4.22135e-06
27 *987:A1 *230:61 0.000353271
28 *995:A *1103:A1 6.46173e-05
29 *1009:B1 *1128:A0 8.69554e-05
30 *1028:C1 *230:61 0.000257619
31 *1033:B *230:61 5.49544e-05
32 *1034:A2 *1103:A1 1.51219e-05
33 *1062:A2 *1128:A0 0.000373857
34 *1063:B *230:61 5.74499e-06
35 *1074:B1 *230:61 1.24368e-05
36 *1075:A1 *1152:A1 0
37 *1076:A1 *1103:A1 0.000280685
38 *1082:A *1103:A1 1.12578e-05
39 *1102:B *1103:A1 5.74784e-05
40 *1102:B *230:61 1.32056e-05
41 *1107:S *1152:A1 2.63678e-05
42 *1124:A0 *1103:A1 4.21517e-05
43 *1131:A *1128:A0 0.000140088
44 *1132:B *230:61 7.29712e-05
45 *1140:B *230:61 5.05056e-05
46 *1144:S *1152:A1 1.87331e-05
47 *1168:D *1128:A0 6.28203e-05
48 *1168:D *230:61 0.000660401
49 *1168:D *230:86 2.09413e-05
50 *1174:D *230:61 0.000113936
51 *1177:D *1103:A1 0.000244141
52 *32:64 *230:61 0
53 *49:61 *1128:A0 6.09762e-05
54 *49:61 *230:86 0.000226544
55 *57:70 *1103:A1 0.000170839
56 *71:43 *1152:A1 2.23592e-05
57 *71:47 *1152:A1 1.15154e-05
58 *77:49 *1152:A1 0.000160941
59 *84:38 *1128:A0 0.00037221
60 *89:22 *1128:A0 7.68283e-05
61 *101:26 *1103:A1 0.000263166
62 *104:22 *1103:A1 0.00015646
63 *109:26 *1103:A1 2.02794e-05
64 *119:46 *1128:A0 0.000251907
65 *145:75 *1128:A0 0.000172898
66 *146:26 *1128:A0 0.000218326
67 *155:63 *1128:A0 0.000192909
68 *161:46 *1103:A1 9.48589e-05
69 *172:16 *230:61 0.000343528
70 *174:73 *1152:A1 4.91806e-05
71 *174:112 *230:61 0.000139187
72 *174:124 *1103:A1 0.00018146
73 *178:71 *1128:A0 0.0001921
74 *191:124 *1152:A1 5.20232e-05
75 *191:124 *230:86 3.9881e-05
76 *201:52 *230:86 1.03483e-05
77 *204:28 *1128:A0 0.000503579
78 *206:34 *1128:A0 0.00105467
79 *228:24 *1128:A0 5.78667e-05
80 *228:24 *230:61 4.35597e-05
*RES
1 *1102:Y *230:4 9.3 
2 *230:4 *1103:A1 40.773 
3 *230:4 *230:61 44.2143 
4 *230:61 *1128:A0 42.1986 
5 *230:61 *230:86 3.16071 
6 *230:86 *1152:A1 25.2464 
7 *230:86 *1115:A1 13.8 
*END

*D_NET *231 0.0115994
*CONN
*I *1104:A I *D sky130_fd_sc_hd__buf_1
*I *1103:X O *D sky130_fd_sc_hd__mux2_1
*CAP
1 *1104:A 0.000721215
2 *1103:X 0.00282424
3 *231:10 0.00354545
4 *1104:A *234:16 0.000367352
5 *1104:A *234:65 8.92478e-05
6 *231:10 *1170:CLK 7.40922e-05
7 *231:10 *233:77 0.000168076
8 *999:A2 *1104:A 0.000312278
9 *1172:D *1104:A 0.000179913
10 *1174:D *231:10 3.63866e-05
11 *49:61 *231:10 4.58194e-05
12 *51:14 *1104:A 0.000639512
13 *55:14 *1104:A 0
14 *81:142 *1104:A 6.4974e-06
15 *84:83 *231:10 0.000582579
16 *112:57 *1104:A 0.000221815
17 *130:10 *231:10 0.000975457
18 *130:78 *231:10 4.25176e-05
19 *138:24 *1104:A 0.000310624
20 *138:34 *1104:A 0.000342302
21 *138:34 *231:10 8.13261e-05
22 *223:54 *1104:A 3.2687e-05
*RES
1 *1103:X *231:10 45.0857 
2 *231:10 *1104:A 45.4786 
*END

*D_NET *232 0.00404137
*CONN
*I *1187:A I *D sky130_fd_sc_hd__clkbuf_16
*I *1186:A I *D sky130_fd_sc_hd__clkbuf_16
*I *1185:X O *D sky130_fd_sc_hd__clkbuf_16
*CAP
1 *1187:A 0.000441842
2 *1186:A 0.000788976
3 *1185:X 0
4 *232:4 0.00123082
5 *1186:A *236:39 6.21828e-05
6 *1187:A *1009:A2 0.000243249
7 *1187:A *236:39 6.90644e-05
8 *1187:A *244:12 0.000121165
9 *1187:A *247:46 1.24368e-05
10 *1039:B1 *1187:A 5.46373e-05
11 *1185:A *1186:A 0.000340746
12 *31:28 *1186:A 0.000139632
13 *145:75 *1187:A 1.76616e-05
14 *178:18 *1187:A 5.52302e-05
15 *191:97 *1187:A 5.89739e-05
16 *191:124 *1186:A 0.000127386
17 *191:124 *1187:A 6.05161e-06
18 *192:20 *1187:A 0.000139515
19 *201:16 *1187:A 4.55166e-05
20 *209:59 *1187:A 2.97456e-05
21 *210:26 *1186:A 5.65367e-05
*RES
1 *1185:X *232:4 9.3 
2 *232:4 *1186:A 19.3 
3 *232:4 *1187:A 27.1571 
*END

*D_NET *233 0.0339751
*CONN
*I *1168:CLK I *D sky130_fd_sc_hd__dfxtp_1
*I *1157:CLK I *D sky130_fd_sc_hd__dfxtp_1
*I *1180:CLK I *D sky130_fd_sc_hd__dfxtp_1
*I *1161:CLK I *D sky130_fd_sc_hd__dfxtp_1
*I *1171:CLK I *D sky130_fd_sc_hd__dfxtp_1
*I *1169:CLK I *D sky130_fd_sc_hd__dfxtp_1
*I *1184:CLK I *D sky130_fd_sc_hd__dfrtp_1
*I *1160:CLK I *D sky130_fd_sc_hd__dfxtp_1
*I *1183:CLK I *D sky130_fd_sc_hd__dfrtp_4
*I *1163:CLK I *D sky130_fd_sc_hd__dfxtp_1
*I *1175:CLK I *D sky130_fd_sc_hd__dfxtp_1
*I *1170:CLK I *D sky130_fd_sc_hd__dfxtp_1
*I *1174:CLK I *D sky130_fd_sc_hd__dfxtp_1
*I *1181:CLK I *D sky130_fd_sc_hd__dfxtp_1
*I *1179:CLK I *D sky130_fd_sc_hd__dfxtp_1
*I *1173:CLK I *D sky130_fd_sc_hd__dfxtp_1
*I *1186:X O *D sky130_fd_sc_hd__clkbuf_16
*CAP
1 *1168:CLK 0.000240634
2 *1157:CLK 0
3 *1180:CLK 0.000471205
4 *1161:CLK 0.000226508
5 *1171:CLK 0.00013354
6 *1169:CLK 0.000291018
7 *1184:CLK 0
8 *1160:CLK 4.06336e-05
9 *1183:CLK 0.000656939
10 *1163:CLK 0
11 *1175:CLK 0
12 *1170:CLK 0.000728143
13 *1174:CLK 0
14 *1181:CLK 0
15 *1179:CLK 0.000739878
16 *1173:CLK 0.000514771
17 *1186:X 0
18 *233:176 0.000805472
19 *233:154 0.000458691
20 *233:147 0.000404851
21 *233:143 0.000924537
22 *233:137 0.000675654
23 *233:133 0.000583315
24 *233:77 0.00101182
25 *233:53 0.000840069
26 *233:51 0.000511858
27 *233:47 0.000623541
28 *233:41 0.000866487
29 *233:27 0.00142214
30 *233:23 0.00103627
31 *233:19 0.000749147
32 *233:6 0.000549461
33 *1168:CLK *252:48 0.000670645
34 *1173:CLK *985:B2 6.24774e-05
35 *1179:CLK *1124:A1 5.55677e-05
36 *1183:CLK *252:48 5.33005e-05
37 *1183:CLK *252:56 2.95642e-05
38 *233:23 *236:12 1.07719e-05
39 *233:23 *236:33 2.40107e-05
40 *233:27 *236:12 6.02599e-05
41 *233:27 *255:71 9.95173e-06
42 *233:41 *1041:A0 5.13086e-05
43 *233:41 *265:16 6.96758e-06
44 *233:47 *238:39 1.94945e-05
45 *233:51 *1124:A1 8.28487e-05
46 *233:53 *1124:A1 0.000107753
47 *233:77 *249:8 0.000183477
48 *233:137 *252:48 0.000385277
49 *233:137 *255:71 4.44582e-05
50 *233:147 *237:18 6.36336e-05
51 *272:DIODE *1170:CLK 0.000136727
52 *938:A *1170:CLK 0.000270399
53 *963:B *1180:CLK 0.000103775
54 *985:B1 *1173:CLK 0.000429714
55 *985:B1 *233:19 7.57673e-05
56 *985:B1 *233:133 0.000227078
57 *985:C1 *1171:CLK 4.8629e-05
58 *1016:A1 *1170:CLK 0.00106413
59 *1019:B *1179:CLK 0.000375733
60 *1019:B *233:51 0.000327921
61 *1019:B *233:53 0.000240724
62 *1035:B1 *1168:CLK 0.000147968
63 *1039:A1 *1173:CLK 5.33005e-05
64 *1040:S *233:137 0.00016978
65 *1040:S *233:143 9.67754e-05
66 *1071:A *1173:CLK 1.75319e-05
67 *1079:A2 *1180:CLK 0.000157848
68 *1079:A2 *233:143 0.000721141
69 *1079:A2 *233:176 0.000184741
70 *1101:B *1179:CLK 1.01912e-05
71 *1103:A1 *233:77 0.000136958
72 *1114:A *1170:CLK 0.000335686
73 *1116:A *233:47 9.58126e-05
74 *1130:A *1173:CLK 0.000122527
75 *1139:A *1170:CLK 0.000139453
76 *1142:A *1180:CLK 9.6581e-05
77 *1160:D *233:27 4.87669e-06
78 *1161:D *1161:CLK 0.000226835
79 *1161:D *1183:CLK 9.59918e-05
80 *1163:D *233:47 0
81 *1168:D *1168:CLK 0.000124582
82 *1170:D *1170:CLK 0.000124325
83 *1174:D *233:77 8.82363e-05
84 *1175:D *233:47 0.00060163
85 *1179:D *1179:CLK 1.64343e-05
86 *1183:D *1183:CLK 0.000220519
87 *1183:RESET_B *1183:CLK 0.000201889
88 *1183:RESET_B *233:41 0.000333176
89 *1183:RESET_B *233:47 0.000118396
90 *1184:RESET_B *233:147 4.96254e-05
91 *20:16 *1183:CLK 0.000216386
92 *20:16 *233:41 0.000424014
93 *20:16 *233:47 0.000551902
94 *20:16 *233:137 0.000124697
95 *20:16 *233:143 4.23557e-05
96 *28:24 *1179:CLK 0.000181885
97 *32:64 *1169:CLK 0.000230368
98 *44:22 *1179:CLK 9.25014e-06
99 *44:22 *233:53 3.45763e-05
100 *58:12 *1180:CLK 0.000259561
101 *69:14 *233:23 0.000594045
102 *69:14 *233:143 0.000250365
103 *82:185 *1180:CLK 0.00055226
104 *84:89 *1170:CLK 5.00994e-05
105 *95:18 *233:41 5.45989e-05
106 *96:42 *1173:CLK 2.62102e-05
107 *102:16 *1180:CLK 0
108 *102:16 *233:143 0
109 *102:16 *233:176 0
110 *106:80 *1180:CLK 5.64237e-05
111 *109:26 *233:51 0.00015078
112 *116:98 *1173:CLK 0.000220935
113 *130:10 *1170:CLK 8.93791e-05
114 *132:12 *1169:CLK 0.000202766
115 *132:12 *233:147 0.000240147
116 *132:12 *233:154 5.28345e-05
117 *134:10 *233:47 0.000226548
118 *138:34 *1170:CLK 0.000202631
119 *138:34 *233:77 0.00043579
120 *160:20 *233:147 0.000142856
121 *160:20 *233:176 5.60463e-06
122 *171:40 *1173:CLK 8.73497e-05
123 *172:16 *1168:CLK 0.000220035
124 *172:16 *1173:CLK 0.000186724
125 *172:16 *233:19 6.55169e-05
126 *172:16 *233:133 0.000218455
127 *172:16 *233:137 2.59355e-05
128 *173:20 *233:47 0.000512913
129 *174:112 *1173:CLK 0.000345296
130 *201:116 *1161:CLK 0.000650224
131 *205:57 *1179:CLK 0.000161269
132 *208:81 *1171:CLK 0.000184655
133 *230:61 *1168:CLK 2.356e-05
134 *231:10 *1170:CLK 7.40922e-05
135 *231:10 *233:77 0.000168076
*RES
1 *1186:X *233:6 13.8 
2 *233:6 *1173:CLK 26.8714 
3 *233:6 *233:19 1.03571 
4 *233:19 *233:23 12.0179 
5 *233:23 *233:27 8.73214 
6 *233:27 *233:41 12.9604 
7 *233:41 *233:47 18.6071 
8 *233:47 *233:51 8.875 
9 *233:51 *233:53 3.16071 
10 *233:53 *1179:CLK 29.5143 
11 *233:53 *1181:CLK 13.8 
12 *233:51 *233:77 12.8571 
13 *233:77 *1174:CLK 9.3 
14 *233:77 *1170:CLK 38.0321 
15 *233:47 *1175:CLK 9.3 
16 *233:41 *1163:CLK 13.8 
17 *233:27 *1183:CLK 27.3179 
18 *233:23 *1160:CLK 10.0321 
19 *233:19 *233:133 7.66071 
20 *233:133 *233:137 6.30357 
21 *233:137 *233:143 15.2857 
22 *233:143 *233:147 12.0179 
23 *233:147 *1184:CLK 9.3 
24 *233:147 *233:154 0.946429 
25 *233:154 *1169:CLK 15.6036 
26 *233:154 *1171:CLK 20.8536 
27 *233:143 *233:176 2.55357 
28 *233:176 *1161:CLK 20.0857 
29 *233:176 *1180:CLK 25.7643 
30 *233:137 *1157:CLK 9.3 
31 *233:133 *1168:CLK 17.6393 
*END

*D_NET *234 0.0294776
*CONN
*I *1165:CLK I *D sky130_fd_sc_hd__dfxtp_1
*I *1176:CLK I *D sky130_fd_sc_hd__dfxtp_1
*I *1178:CLK I *D sky130_fd_sc_hd__dfxtp_1
*I *1188:A I *D sky130_fd_sc_hd__bufinv_16
*I *1158:CLK I *D sky130_fd_sc_hd__dfxtp_1
*I *1159:CLK I *D sky130_fd_sc_hd__dfxtp_1
*I *1162:CLK I *D sky130_fd_sc_hd__dfxtp_1
*I *1166:CLK I *D sky130_fd_sc_hd__dfxtp_1
*I *1182:CLK I *D sky130_fd_sc_hd__dfrtp_2
*I *1177:CLK I *D sky130_fd_sc_hd__dfxtp_1
*I *1167:CLK I *D sky130_fd_sc_hd__dfxtp_1
*I *1164:CLK I *D sky130_fd_sc_hd__dfxtp_1
*I *1172:CLK I *D sky130_fd_sc_hd__dfxtp_1
*I *1187:X O *D sky130_fd_sc_hd__clkbuf_16
*CAP
1 *1165:CLK 0.000174525
2 *1176:CLK 0.000237992
3 *1178:CLK 3.03859e-05
4 *1188:A 0
5 *1158:CLK 0.000512204
6 *1159:CLK 0
7 *1162:CLK 0
8 *1166:CLK 0
9 *1182:CLK 1.63095e-05
10 *1177:CLK 0.000397405
11 *1167:CLK 0.000404788
12 *1164:CLK 0.000366037
13 *1172:CLK 6.20476e-05
14 *1187:X 2.71379e-05
15 *234:163 0.00141513
16 *234:148 0.00121525
17 *234:121 0.000656359
18 *234:112 0.000898265
19 *234:95 0.00107451
20 *234:93 0.000329334
21 *234:91 0.000435975
22 *234:65 0.000832852
23 *234:31 0.000995725
24 *234:18 0.000804743
25 *234:16 0.001638
26 *234:8 0.000973003
27 *1164:CLK *955:B 0.000119625
28 *1164:CLK *259:14 2.6913e-05
29 *1164:CLK *260:42 0.000293107
30 *1165:CLK *972:A1 0
31 *1167:CLK *940:A 0.000273068
32 *1167:CLK *955:B 2.42516e-05
33 *1167:CLK *239:76 0
34 *1167:CLK *260:42 0.000860762
35 *234:16 *1041:A0 8.96104e-05
36 *234:18 *236:100 0.000287652
37 *234:31 *236:100 0.000167902
38 *234:91 *247:46 0.000602241
39 *234:93 *247:46 5.49489e-05
40 *234:95 *244:12 0.000149457
41 *234:95 *247:46 5.65955e-05
42 *234:148 *247:46 3.93631e-05
43 *234:163 *972:A1 6.31578e-05
44 *234:163 *972:B2 3.50409e-05
45 *936:A *1177:CLK 0.000197091
46 *952:D *1158:CLK 5.33005e-05
47 *961:A *1158:CLK 0.000728228
48 *972:A2 *234:163 3.60587e-05
49 *972:B1 *234:163 5.33005e-05
50 *972:C1 *234:163 0.000386121
51 *973:B1 *1165:CLK 5.33005e-05
52 *973:B1 *1176:CLK 0.000253803
53 *973:B1 *234:163 5.49489e-05
54 *1005:C *1176:CLK 9.35228e-06
55 *1009:A1 *1178:CLK 4.82947e-05
56 *1009:A1 *234:163 1.62284e-05
57 *1011:B1 *234:31 4.5083e-05
58 *1015:A *1158:CLK 2.24718e-05
59 *1018:A *234:16 5.20298e-05
60 *1027:A *234:112 0.000151549
61 *1035:A2_N *234:163 0.000438176
62 *1039:B1 *234:148 5.25862e-06
63 *1052:A3 *234:31 4.43299e-05
64 *1066:A *234:163 0.000502801
65 *1075:A1 *1158:CLK 9.21418e-06
66 *1075:A1 *234:112 8.1546e-05
67 *1100:B *234:91 0.000223463
68 *1104:A *234:16 0.000367352
69 *1104:A *234:65 8.92478e-05
70 *1117:C *234:16 0
71 *1126:A0 *1177:CLK 9.60337e-06
72 *1133:A *234:65 0.000391976
73 *1162:D *234:112 3.17987e-05
74 *1164:D *1164:CLK 0.000126389
75 *1166:D *234:95 8.13309e-05
76 *1172:D *234:16 0
77 *1172:D *234:18 0
78 *1177:D *1177:CLK 1.64343e-05
79 *1178:D *234:163 0.000570629
80 *1182:D *1182:CLK 2.12005e-05
81 *1182:D *234:65 0.000397024
82 *24:26 *234:16 0.000173132
83 *31:28 *234:95 4.87854e-05
84 *32:34 *234:18 0.000136388
85 *34:28 *234:112 0.000196471
86 *41:20 *1177:CLK 0
87 *45:26 *234:65 8.94769e-05
88 *48:36 *234:18 0.000136659
89 *55:14 *234:18 0
90 *55:14 *234:65 3.31314e-05
91 *56:22 *1177:CLK 0.00016002
92 *57:22 *1176:CLK 0
93 *63:30 *234:16 0.000198803
94 *65:28 *1177:CLK 6.09762e-05
95 *71:20 *234:95 0.00018028
96 *77:43 *234:148 0.000124634
97 *77:43 *234:163 5.31158e-05
98 *77:117 *234:91 4.88116e-05
99 *78:16 *1177:CLK 0.000333517
100 *81:92 *234:16 0.000162444
101 *81:142 *1177:CLK 0.000390414
102 *82:66 *1164:CLK 6.30226e-05
103 *83:30 *234:148 8.18654e-05
104 *83:48 *234:148 0.000117919
105 *83:94 *234:163 0.000180355
106 *84:46 *234:8 9.54798e-06
107 *84:46 *234:16 0
108 *90:34 *234:91 3.53533e-05
109 *90:42 *1178:CLK 9.58181e-05
110 *90:42 *234:163 0.000137561
111 *95:73 *234:163 0.000103415
112 *96:18 *234:18 7.14469e-05
113 *99:43 *1158:CLK 9.54798e-06
114 *99:43 *234:112 0.000696351
115 *99:43 *234:121 0.000183689
116 *104:10 *1158:CLK 6.595e-05
117 *108:65 *1176:CLK 4.86376e-05
118 *110:78 *234:163 0.000182605
119 *118:24 *1172:CLK 3.05155e-05
120 *118:24 *234:18 2.93302e-05
121 *118:24 *234:31 1.14483e-05
122 *125:32 *234:65 5.01649e-06
123 *128:44 *1158:CLK 0.000534446
124 *128:44 *234:121 8.6229e-06
125 *129:26 *234:121 2.52553e-05
126 *145:41 *1182:CLK 5.33005e-05
127 *145:41 *234:65 1.64621e-05
128 *146:26 *234:148 0.000229649
129 *146:26 *234:163 4.44929e-05
130 *158:20 *234:112 8.60907e-05
131 *170:35 *1158:CLK 6.98131e-05
132 *174:83 *234:112 0.000111218
133 *174:112 *234:112 1.32056e-05
134 *183:34 *234:18 8.6281e-05
135 *186:28 *234:31 4.99283e-06
136 *191:16 *234:31 0.000168621
137 *191:97 *234:8 4.00349e-05
138 *191:97 *234:16 8.79856e-06
139 *191:97 *234:91 0.000149924
140 *192:20 *234:91 8.2607e-05
141 *192:20 *234:93 4.33899e-05
142 *192:20 *234:95 0.000261799
143 *198:18 *1164:CLK 0.000186706
144 *198:18 *234:16 0
145 *198:18 *234:31 0
146 *198:28 *234:8 1.34355e-05
147 *198:28 *234:91 5.31204e-05
148 *201:52 *234:95 6.05161e-06
149 *201:52 *234:112 2.72695e-05
150 *209:59 *234:16 8.33571e-05
151 *216:14 *1167:CLK 0
152 *223:38 *1176:CLK 0.000163161
153 *227:51 *234:91 8.43535e-06
*RES
1 *1187:X *234:8 14.3804 
2 *234:8 *234:16 18.6642 
3 *234:16 *234:18 8.92857 
4 *234:18 *1172:CLK 14.7464 
5 *234:18 *234:31 9.48214 
6 *234:31 *1164:CLK 18.6036 
7 *234:31 *1167:CLK 29.1929 
8 *234:16 *234:65 13.6786 
9 *234:65 *1177:CLK 28.4786 
10 *234:65 *1182:CLK 9.83571 
11 *234:8 *234:91 12.1696 
12 *234:91 *234:93 0.535714 
13 *234:93 *234:95 7.51786 
14 *234:95 *1166:CLK 9.3 
15 *234:95 *234:112 19.7321 
16 *234:112 *1162:CLK 13.8 
17 *234:112 *234:121 2.55357 
18 *234:121 *1159:CLK 13.8 
19 *234:121 *1158:CLK 26.2286 
20 *234:93 *1188:A 9.3 
21 *234:91 *234:148 9.17857 
22 *234:148 *1178:CLK 14.7464 
23 *234:148 *234:163 26.7143 
24 *234:163 *1176:CLK 23.6393 
25 *234:163 *1165:CLK 11.9071 
*END

*D_NET *235 0.02875
*CONN
*I *941:A I *D sky130_fd_sc_hd__clkbuf_4
*I *950:B I *D sky130_fd_sc_hd__nor3b_2
*I *1003:B I *D sky130_fd_sc_hd__and4b_1
*I *975:B I *D sky130_fd_sc_hd__and4b_1
*I *1182:Q O *D sky130_fd_sc_hd__dfrtp_2
*CAP
1 *941:A 4.29651e-05
2 *950:B 0.00194744
3 *1003:B 0
4 *975:B 0.000608829
5 *1182:Q 0.000266764
6 *235:86 0.00315731
7 *235:60 0.0039537
8 *235:31 0.00298512
9 *235:10 0.00115985
10 *950:B *1140:A 3.30259e-05
11 *950:B *236:33 0.000148843
12 *235:10 *250:78 0.000123588
13 *235:31 *239:76 1.0016e-05
14 *235:31 *267:14 0.000119316
15 *235:60 *1117:D_N 6.14836e-06
16 *235:60 *239:76 6.98843e-06
17 *235:60 *239:93 8.27628e-05
18 *235:60 *267:14 0.000688139
19 *235:86 *1020:A 8.92267e-05
20 *235:86 *247:71 8.92267e-05
21 *235:86 *267:40 9.08883e-05
22 *952:D *235:86 6.41052e-05
23 *1002:A1 *235:86 0
24 *1015:A *235:86 0.000414281
25 *1026:A1 *950:B 0.000423909
26 *1075:A1 *235:86 0.000313115
27 *1121:A *235:60 0.00043913
28 *1127:A *975:B 0.00017754
29 *1132:B *235:86 0.000110007
30 *1140:B *950:B 5.33005e-05
31 *1143:A *975:B 2.02727e-05
32 *1148:S *235:86 4.65617e-06
33 *1182:RESET_B *235:10 6.26774e-05
34 *33:16 *975:B 0.000576527
35 *57:36 *235:60 4.38703e-05
36 *58:28 *235:86 0.00113739
37 *64:32 *950:B 9.41642e-05
38 *65:8 *941:A 9.51716e-06
39 *65:8 *235:60 5.23909e-05
40 *65:8 *235:86 1.96322e-05
41 *65:28 *235:60 0.000179252
42 *70:32 *975:B 3.24007e-05
43 *77:55 *235:86 0.00076242
44 *77:121 *235:31 0.000160827
45 *77:131 *975:B 0.000473021
46 *77:131 *235:31 3.71101e-05
47 *77:145 *975:B 0.000110135
48 *78:51 *235:60 0.000302258
49 *78:84 *235:60 0.000450031
50 *80:38 *235:60 4.65519e-05
51 *81:12 *235:60 0.000127359
52 *81:142 *975:B 1.65923e-05
53 *81:142 *235:10 0.000338592
54 *81:142 *235:31 4.33704e-05
55 *83:8 *235:86 8.6229e-06
56 *83:10 *235:86 1.90936e-05
57 *84:26 *235:60 8.63728e-05
58 *85:20 *950:B 0.000111411
59 *85:63 *950:B 0.000216386
60 *85:63 *235:60 1.90269e-05
61 *87:32 *235:86 8.37661e-05
62 *93:37 *235:86 0.000931531
63 *125:32 *975:B 0
64 *127:31 *975:B 0
65 *127:31 *235:31 0
66 *131:36 *235:60 0.000102075
67 *136:24 *235:86 0.00112046
68 *145:41 *975:B 0.000535929
69 *145:41 *235:31 4.47218e-05
70 *154:18 *235:86 8.75061e-05
71 *179:34 *235:60 1.90936e-05
72 *185:20 *950:B 0.000147419
73 *194:14 *235:60 0.000959608
74 *200:30 *235:60 0.00134115
75 *228:24 *950:B 0.000127359
76 *230:61 *950:B 8.19176e-05
*RES
1 *1182:Q *235:10 19.8 
2 *235:10 *975:B 29.2821 
3 *235:10 *235:31 5.64286 
4 *235:31 *1003:B 13.8 
5 *235:31 *235:60 46.1405 
6 *235:60 *235:86 46.6489 
7 *235:86 *950:B 36.4241 
8 *235:60 *941:A 10.1973 
*END

*D_NET *236 0.0394996
*CONN
*I *977:B I *D sky130_fd_sc_hd__nand2b_2
*I *952:A_N I *D sky130_fd_sc_hd__and4bb_1
*I *949:A_N I *D sky130_fd_sc_hd__nand3b_4
*I *1002:A0 I *D sky130_fd_sc_hd__mux2_2
*I *1007:A_N I *D sky130_fd_sc_hd__and4b_1
*I *1003:A_N I *D sky130_fd_sc_hd__and4b_1
*I *940:A I *D sky130_fd_sc_hd__clkbuf_4
*I *955:B I *D sky130_fd_sc_hd__and2b_1
*I *975:A_N I *D sky130_fd_sc_hd__and4b_1
*I *950:C_N I *D sky130_fd_sc_hd__nor3b_2
*I *1183:Q O *D sky130_fd_sc_hd__dfrtp_4
*CAP
1 *977:B 0.000383664
2 *952:A_N 0
3 *949:A_N 3.54431e-05
4 *1002:A0 0.00013552
5 *1007:A_N 1.76505e-05
6 *1003:A_N 0.000633939
7 *940:A 0.00175886
8 *955:B 0.000638789
9 *975:A_N 3.39126e-05
10 *950:C_N 2.20512e-05
11 *1183:Q 0.000273156
12 *236:194 0.00101566
13 *236:173 0.00081919
14 *236:156 0.000878285
15 *236:100 0.00326065
16 *236:73 0.0022773
17 *236:49 0.00250832
18 *236:39 0.00127004
19 *236:33 0.00204539
20 *236:12 0.000991184
21 *940:A *260:42 4.72595e-05
22 *977:B *977:A_N 0.000143204
23 *977:B *1020:A 0.000517144
24 *1003:A_N *1117:D_N 0.000233092
25 *1003:A_N *238:70 7.05381e-05
26 *1003:A_N *239:76 2.11419e-05
27 *1003:A_N *257:49 6.41086e-06
28 *236:12 *255:71 0.000342302
29 *236:33 *255:71 0.000177821
30 *236:39 *1140:A 8.40344e-05
31 *236:39 *247:46 4.27338e-05
32 *236:73 *259:14 8.58472e-05
33 *236:156 *1140:A 0.000399974
34 *236:194 *1054:A 0.000209534
35 *236:194 *271:43 0.00047759
36 *937:A *1003:A_N 2.07552e-05
37 *950:B *236:33 0.000148843
38 *955:A_N *955:B 4.7365e-05
39 *957:B *236:100 0.000192447
40 *981:B1 *236:33 0.000940183
41 *1007:D *236:39 4.89629e-05
42 *1008:A2 *236:194 0.000318359
43 *1026:A0 *236:39 0.00013921
44 *1026:A1 *236:33 1.98839e-05
45 *1113:S *955:B 0.000230482
46 *1137:A *1002:A0 1.10422e-05
47 *1144:S *1002:A0 4.82865e-05
48 *1160:D *236:12 1.64343e-05
49 *1161:D *236:12 0.000327077
50 *1162:D *1007:A_N 5.33005e-05
51 *1162:D *236:39 0.00117607
52 *1164:CLK *955:B 0.000119625
53 *1167:CLK *940:A 0.000273068
54 *1167:CLK *955:B 2.42516e-05
55 *1185:A *236:39 5.96516e-05
56 *1186:A *236:39 6.21828e-05
57 *1187:A *236:39 6.90644e-05
58 *24:26 *1003:A_N 5.7238e-05
59 *32:64 *236:39 0.000239351
60 *32:64 *236:156 0.000442594
61 *33:16 *975:A_N 1.73088e-05
62 *33:16 *236:100 6.01382e-05
63 *34:28 *236:39 2.36309e-05
64 *43:26 *236:156 0
65 *44:22 *236:73 3.28822e-05
66 *46:20 *1002:A0 0.000125917
67 *46:20 *236:156 0.000550648
68 *53:14 *955:B 0.000271345
69 *55:14 *236:100 0
70 *56:22 *1003:A_N 2.11419e-05
71 *62:14 *236:39 9.41642e-05
72 *64:68 *236:73 0.000128972
73 *69:14 *236:33 2.42516e-05
74 *77:43 *236:49 5.05056e-05
75 *81:28 *236:156 0.000247908
76 *81:28 *236:173 0.000419344
77 *81:72 *1003:A_N 9.04253e-06
78 *83:48 *236:49 0.000119065
79 *83:48 *236:73 2.33936e-05
80 *83:61 *236:49 1.03403e-05
81 *83:94 *1007:A_N 1.98839e-05
82 *83:94 *236:39 9.21118e-05
83 *84:26 *977:B 0
84 *84:81 *1003:A_N 6.90249e-05
85 *84:81 *236:49 2.64888e-05
86 *88:12 *949:A_N 8.88566e-05
87 *88:12 *236:194 0.000311501
88 *90:34 *236:49 0.00024513
89 *95:73 *236:73 0.000717067
90 *96:18 *236:100 7.14469e-05
91 *96:42 *1002:A0 9.41642e-05
92 *99:8 *236:39 0.000591765
93 *100:65 *1003:A_N 1.97712e-05
94 *100:65 *236:73 2.35215e-05
95 *102:16 *236:33 2.21972e-05
96 *104:22 *236:12 0.000325498
97 *106:95 *236:33 2.06112e-05
98 *112:57 *236:73 6.43424e-05
99 *127:31 *940:A 0.000552335
100 *128:44 *949:A_N 1.28005e-05
101 *154:18 *236:194 3.03155e-05
102 *157:18 *1003:A_N 0.000696699
103 *157:18 *236:73 4.79453e-05
104 *160:20 *236:156 0.000109428
105 *160:20 *236:173 0.000393579
106 *170:35 *949:A_N 6.47405e-05
107 *170:35 *236:194 0.000518701
108 *174:57 *236:194 5.49995e-05
109 *174:73 *236:194 9.58689e-05
110 *183:34 *236:73 0.000120929
111 *183:34 *236:100 1.34548e-05
112 *190:30 *955:B 5.02197e-05
113 *191:16 *236:100 0.000231987
114 *191:79 *1003:A_N 2.62977e-05
115 *191:124 *236:39 0.000388648
116 *192:20 *236:49 8.87806e-05
117 *198:18 *955:B 0.000268782
118 *198:18 *236:73 2.63591e-05
119 *198:24 *236:49 2.51485e-05
120 *198:24 *236:73 3.62412e-05
121 *201:90 *977:B 0.000128523
122 *201:92 *977:B 0.000694893
123 *201:92 *236:194 3.51056e-05
124 *201:100 *236:194 0.000284803
125 *208:75 *977:B 0.000427774
126 *208:75 *236:194 0.000861767
127 *209:59 *236:49 0
128 *210:26 *236:39 0.00031292
129 *228:24 *236:33 0.00037217
130 *230:61 *236:39 0
131 *233:23 *236:12 1.07719e-05
132 *233:23 *236:33 2.40107e-05
133 *233:27 *236:12 6.02599e-05
134 *234:18 *236:100 0.000287652
135 *234:31 *236:100 0.000167902
*RES
1 *1183:Q *236:12 26.0857 
2 *236:12 *950:C_N 9.72857 
3 *236:12 *236:33 16.2471 
4 *236:33 *236:39 26.4196 
5 *236:39 *236:49 13.3661 
6 *236:49 *236:73 26.3714 
7 *236:73 *975:A_N 10.0321 
8 *236:73 *236:100 23.6964 
9 *236:100 *955:B 29.0143 
10 *236:100 *940:A 32.8536 
11 *236:49 *1003:A_N 22.4572 
12 *236:39 *1007:A_N 9.83571 
13 *236:33 *236:156 16.5297 
14 *236:156 *1002:A0 19.9511 
15 *236:156 *236:173 4.1056 
16 *236:173 *949:A_N 14.9875 
17 *236:173 *236:194 24.6518 
18 *236:194 *952:A_N 9.3 
19 *236:194 *977:B 30.2286 
*END

*D_NET *237 0.0174041
*CONN
*I *977:A_N I *D sky130_fd_sc_hd__nand2b_2
*I *935:A I *D sky130_fd_sc_hd__clkbuf_4
*I *950:A I *D sky130_fd_sc_hd__nor3b_2
*I *1184:Q O *D sky130_fd_sc_hd__dfrtp_1
*CAP
1 *977:A_N 0.000944139
2 *935:A 0.000437686
3 *950:A 0.000160748
4 *1184:Q 0.000612214
5 *237:53 0.00152717
6 *237:45 0.00123982
7 *237:18 0.00186744
8 *935:A *1146:A0 7.99093e-06
9 *935:A *1192:A 0.000219289
10 *935:A *257:49 0.000245832
11 *950:A *252:48 0.000185325
12 *977:A_N *1054:A 4.58194e-05
13 *977:A_N *1107:A0 0.00139356
14 *977:A_N *257:49 0.000178774
15 *237:45 *973:A1 0.000633141
16 *237:45 *262:12 0.000978529
17 *237:53 *1146:A0 1.21258e-05
18 *977:B *977:A_N 0.000143204
19 *982:A *977:A_N 0.000408621
20 *982:B *977:A_N 6.01075e-05
21 *1032:A2 *977:A_N 1.08488e-05
22 *1035:A1_N *237:53 1.33434e-05
23 *1035:A2_N *237:45 5.47265e-05
24 *1035:A2_N *237:53 1.60322e-05
25 *1035:B1 *237:45 0.000678995
26 *1064:B *237:45 0.000216452
27 *1066:A *935:A 5.05056e-05
28 *1072:A *935:A 0.000220937
29 *1074:B1 *237:45 5.87086e-05
30 *1074:B1 *237:53 4.61191e-05
31 *1078:A2 *237:45 0.000135028
32 *1098:B1 *977:A_N 0
33 *1184:RESET_B *237:18 0.00013324
34 *32:64 *237:45 0.000136676
35 *37:12 *950:A 0.000317228
36 *37:12 *237:18 0.000195335
37 *71:43 *237:45 0.00011595
38 *77:43 *237:45 0.000670381
39 *81:72 *977:A_N 0.000138634
40 *83:94 *935:A 0.000232064
41 *83:94 *977:A_N 5.03579e-05
42 *89:22 *950:A 5.20298e-05
43 *95:73 *935:A 0.000216755
44 *99:43 *237:45 9.58181e-05
45 *102:16 *237:18 0.000150328
46 *106:95 *950:A 3.57933e-05
47 *106:95 *237:18 0.000152474
48 *119:30 *977:A_N 6.25005e-05
49 *132:12 *237:18 0.000117468
50 *155:82 *237:45 8.25697e-05
51 *155:82 *237:53 0.00039287
52 *173:38 *237:45 0.000113248
53 *174:6 *237:53 9.66977e-05
54 *174:45 *977:A_N 9.41642e-05
55 *178:71 *237:53 4.19581e-05
56 *198:28 *935:A 0.000157329
57 *201:80 *977:A_N 7.47217e-05
58 *202:14 *237:45 0.000610608
59 *233:147 *237:18 6.36336e-05
*RES
1 *1184:Q *237:18 25.2286 
2 *237:18 *950:A 18.175 
3 *237:18 *237:45 49.5 
4 *237:45 *237:53 13.5536 
5 *237:53 *935:A 32.8714 
6 *237:53 *977:A_N 36.425 
*END

*D_NET *238 0.0297993
*CONN
*I *1154:A I *D sky130_fd_sc_hd__inv_2
*I *1155:A I *D sky130_fd_sc_hd__inv_2
*I *1156:A I *D sky130_fd_sc_hd__inv_2
*I *1189:X O *D sky130_fd_sc_hd__clkbuf_2
*CAP
1 *1154:A 0
2 *1155:A 0
3 *1156:A 0.000534881
4 *1189:X 0.00102118
5 *238:70 0.00391478
6 *238:39 0.00515491
7 *238:12 0.00279619
8 *1156:A *1091:A0 5.33005e-05
9 *1156:A *271:20 0.000415976
10 *238:12 *271:20 0.000507144
11 *238:12 *271:24 0.00123751
12 *238:39 *1091:A0 0
13 *238:70 *1004:A1 5.33005e-05
14 *238:70 *1041:A0 0.000187336
15 *238:70 *1056:A1 1.18544e-05
16 *238:70 *1117:D_N 4.9714e-05
17 *238:70 *247:46 9.25014e-06
18 *238:70 *260:36 0.000135028
19 *1003:A_N *238:70 7.05381e-05
20 *1004:A2 *238:70 0.000306076
21 *1004:C1 *238:70 0.000185528
22 *1021:B1 *238:12 0.000139414
23 *1032:B1 *238:70 0.000157445
24 *1051:A0 *238:12 0
25 *1082:A *238:39 5.49489e-05
26 *1082:A *238:70 1.38323e-05
27 *1085:S *238:70 4.65519e-05
28 *1091:A1 *1156:A 0.000179799
29 *1096:A *238:70 4.31964e-05
30 *1103:A1 *238:70 0.000178759
31 *1103:S *1156:A 0.000366486
32 *1114:A *238:70 0.00022102
33 *1177:D *238:39 4.92214e-05
34 *19:12 *1156:A 3.31717e-05
35 *24:26 *238:70 0.00329089
36 *42:10 *1156:A 0.00134508
37 *42:10 *238:12 0.00191824
38 *63:30 *238:70 0.00268403
39 *71:14 *238:70 0.000245517
40 *71:20 *238:70 5.33005e-05
41 *78:51 *238:70 4.65519e-05
42 *88:70 *238:70 0.000339346
43 *104:22 *238:70 0.000180889
44 *116:82 *238:70 0.000195745
45 *131:36 *238:70 0.000550673
46 *191:79 *238:70 8.69554e-05
47 *197:28 *238:70 0.000136951
48 *200:30 *238:12 2.21972e-05
49 *211:18 *238:12 5.47839e-05
50 *216:20 *1156:A 5.54817e-06
51 *220:24 *1156:A 2.85321e-05
52 *221:43 *1156:A 0.000154703
53 *221:43 *238:12 0.00028732
54 *224:12 *238:70 2.42516e-05
55 *233:47 *238:39 1.94945e-05
*RES
1 *1189:X *238:12 49.9518 
2 *238:12 *1156:A 34.2196 
3 *238:12 *238:39 14.1253 
4 *238:39 *1155:A 9.3 
5 *238:39 *238:70 45.2634 
6 *238:70 *1154:A 9.3 
*END

*D_NET *239 0.0420575
*CONN
*I *1142:B I *D sky130_fd_sc_hd__and3_1
*I *1130:B I *D sky130_fd_sc_hd__nand3_1
*I *943:A I *D sky130_fd_sc_hd__and3_1
*I *1105:A I *D sky130_fd_sc_hd__and3_1
*I *945:A1 I *D sky130_fd_sc_hd__a21oi_1
*I *1117:D_N I *D sky130_fd_sc_hd__or4b_1
*I *947:A I *D sky130_fd_sc_hd__xor2_1
*I *1083:A I *D sky130_fd_sc_hd__and2_1
*I *1190:X O *D sky130_fd_sc_hd__buf_2
*CAP
1 *1142:B 0.00150487
2 *1130:B 0.000210914
3 *943:A 3.41077e-05
4 *1105:A 0.000511982
5 *945:A1 0.000705678
6 *1117:D_N 0.000207145
7 *947:A 0
8 *1083:A 9.26688e-05
9 *1190:X 0.000542672
10 *239:93 0.00167259
11 *239:76 0.001868
12 *239:64 0.0027266
13 *239:56 0.00209183
14 *239:50 0.000869684
15 *239:39 0.00113686
16 *239:22 0.00134216
17 *239:10 0.000721106
18 *239:8 0.00218068
19 *945:A1 *972:B2 5.76771e-05
20 *1105:A *242:24 0.000392933
21 *1105:A *250:78 4.00349e-05
22 *1117:D_N *257:49 6.09762e-05
23 *1130:B *249:33 4.5727e-05
24 *1142:B *1008:A1 0.00117763
25 *1142:B *1098:A1 0
26 *1142:B *1103:A0 9.14503e-05
27 *1142:B *249:33 0.000799719
28 *239:10 *249:33 0.000473696
29 *239:39 *1091:A0 2.20111e-05
30 *239:39 *1103:A0 0.000115624
31 *239:39 *250:29 0.000454665
32 *937:A *239:64 0
33 *947:B *239:50 1.98839e-05
34 *947:B *239:56 7.58517e-05
35 *972:B1 *945:A1 6.57603e-05
36 *992:A1 *1105:A 0.000414107
37 *992:A1 *239:93 0.000263253
38 *1003:A_N *1117:D_N 0.000233092
39 *1003:A_N *239:76 2.11419e-05
40 *1018:A *1117:D_N 5.33005e-05
41 *1019:B *1130:B 1.00887e-05
42 *1021:A2 *1142:B 1.90936e-05
43 *1023:A1 *239:8 3.69047e-06
44 *1024:A *943:A 1.98839e-05
45 *1024:A *239:50 0.000456852
46 *1032:A2 *239:93 9.06484e-05
47 *1037:A2 *1105:A 3.06035e-05
48 *1043:A *239:76 0.000147271
49 *1044:B *239:56 7.49002e-05
50 *1050:S *1105:A 0.000133458
51 *1051:A0 *1142:B 0
52 *1088:A *1117:D_N 5.33005e-05
53 *1105:C *1105:A 2.07889e-05
54 *1114:A *239:56 7.70135e-05
55 *1127:A *239:76 0.000642612
56 *1130:A *1130:B 5.982e-05
57 *1130:C *1130:B 5.51861e-05
58 *1145:A *239:10 0
59 *1145:A *239:22 0.000175377
60 *1146:A1 *945:A1 5.54799e-05
61 *1167:CLK *239:76 0
62 *19:12 *239:39 0.000302404
63 *23:28 *239:64 0.00171516
64 *28:26 *239:64 0.00403859
65 *41:20 *1117:D_N 6.25562e-05
66 *48:36 *239:93 2.36299e-05
67 *56:22 *239:76 0.00062766
68 *57:36 *945:A1 2.16277e-05
69 *57:36 *1117:D_N 5.85513e-06
70 *57:36 *239:76 6.47631e-05
71 *57:36 *239:93 8.0679e-05
72 *64:68 *945:A1 0.00045544
73 *77:121 *239:76 0.000101822
74 *77:131 *239:76 0.000686741
75 *78:51 *1117:D_N 4.926e-05
76 *82:66 *239:56 0
77 *82:135 *945:A1 0.000252097
78 *82:135 *1105:A 9.00864e-05
79 *84:130 *1105:A 1.4796e-05
80 *88:70 *945:A1 0.00043051
81 *89:48 *1105:A 4.15526e-05
82 *100:65 *1117:D_N 1.47658e-06
83 *101:26 *239:8 0.000275858
84 *109:26 *239:22 0.000361689
85 *109:40 *1142:B 1.32023e-05
86 *127:31 *239:76 0
87 *130:78 *239:93 0.00018132
88 *131:36 *1105:A 0.000150958
89 *131:36 *1117:D_N 8.96293e-05
90 *131:36 *239:93 0.000639179
91 *134:33 *239:39 5.08914e-05
92 *134:33 *239:50 9.85599e-06
93 *139:18 *239:22 0.000122509
94 *140:12 *239:39 0.00090515
95 *145:41 *239:76 7.23004e-05
96 *152:42 *1142:B 0.000530832
97 *153:18 *1142:B 0.000673981
98 *153:18 *239:10 0.000438778
99 *161:46 *239:56 3.81257e-05
100 *178:71 *945:A1 1.58163e-05
101 *179:34 *239:76 6.47254e-05
102 *180:8 *1105:A 0.000695818
103 *180:65 *239:56 0
104 *190:30 *1142:B 0
105 *191:79 *1117:D_N 2.63501e-05
106 *193:10 *945:A1 0.000591246
107 *215:12 *239:22 9.66977e-05
108 *215:12 *239:39 0.00011163
109 *227:18 *239:39 0.00103756
110 *227:18 *239:50 9.75679e-05
111 *229:14 *239:39 0.000119348
112 *235:31 *239:76 1.0016e-05
113 *235:60 *1117:D_N 6.14836e-06
114 *235:60 *239:76 6.98843e-06
115 *235:60 *239:93 8.27628e-05
116 *238:70 *1117:D_N 4.9714e-05
*RES
1 *1190:X *239:8 20.0857 
2 *239:8 *239:10 6.04464 
3 *239:10 *239:22 14.1339 
4 *239:22 *1083:A 10.675 
5 *239:22 *239:39 35.9107 
6 *239:39 *947:A 9.3 
7 *239:39 *239:50 6.01786 
8 *239:50 *239:56 18.8393 
9 *239:56 *239:64 46.4375 
10 *239:64 *239:76 31.0886 
11 *239:76 *1117:D_N 19.109 
12 *239:76 *239:93 1.48833 
13 *239:93 *945:A1 34.5225 
14 *239:93 *1105:A 27.058 
15 *239:50 *943:A 9.83571 
16 *239:10 *1130:B 17.2911 
17 *239:8 *1142:B 48.1214 
*END

*D_NET *240 0.00790629
*CONN
*I *1191:A I *D sky130_fd_sc_hd__buf_1
*I *1065:Y O *D sky130_fd_sc_hd__xnor2_1
*CAP
1 *1191:A 0.000432614
2 *1065:Y 3.6986e-05
3 *240:14 0.00223567
4 *240:8 0.00184004
5 *240:14 *242:24 0.000444613
6 *240:14 *250:78 0.000271973
7 *240:14 *256:34 0.000551664
8 *240:14 *260:36 0
9 *973:B1 *240:14 3.48072e-05
10 *1005:A *1191:A 0.000143375
11 *1068:A *240:14 2.11419e-05
12 *64:12 *240:14 9.59532e-06
13 *82:12 *240:14 0.00111441
14 *89:48 *240:14 0.000404351
15 *112:18 *240:14 0.000175281
16 *121:50 *240:14 7.26841e-05
17 *144:20 *1191:A 5.33005e-05
18 *144:20 *240:14 0
19 *180:55 *240:8 5.68713e-05
20 *206:18 *240:14 6.91215e-06
*RES
1 *1065:Y *240:8 14.3357 
2 *240:8 *240:14 44.8214 
3 *240:14 *1191:A 15.9071 
*END

*D_NET *241 0.00520542
*CONN
*I *1192:A I *D sky130_fd_sc_hd__buf_1
*I *1072:Y O *D sky130_fd_sc_hd__nand2_1
*CAP
1 *1192:A 0.00101733
2 *1072:Y 0.00101733
3 *1192:A *256:34 5.33005e-05
4 *935:A *1192:A 0.000219289
5 *1072:A *1192:A 8.33274e-05
6 *1128:A0 *1192:A 0.000897888
7 *1128:S *1192:A 0.000433719
8 *1131:A *1192:A 0.000125287
9 *50:18 *1192:A 0.00113748
10 *62:14 *1192:A 0.000143377
11 *77:6 *1192:A 1.02937e-05
12 *83:94 *1192:A 7.20217e-06
13 *206:34 *1192:A 5.96049e-05
*RES
1 *1072:Y *1192:A 44.3321 
*END

*D_NET *242 0.0117264
*CONN
*I *1193:A I *D sky130_fd_sc_hd__buf_1
*I *1074:Y O *D sky130_fd_sc_hd__o31ai_1
*CAP
1 *1193:A 0
2 *1074:Y 0.00289995
3 *242:24 0.00289995
4 *242:24 *245:14 1.71551e-05
5 *242:24 *250:78 0.000119247
6 *242:24 *256:34 0.000437262
7 *972:B1 *242:24 0.000195323
8 *1032:A2 *242:24 0.000313991
9 *1035:A1_N *242:24 0.000133503
10 *1048:A *242:24 0.000708005
11 *1050:S *242:24 0.000394582
12 *1105:A *242:24 0.000392933
13 *1128:A0 *242:24 0.000742465
14 *57:22 *242:24 9.00081e-05
15 *65:28 *242:24 0.000135342
16 *82:135 *242:24 7.9823e-05
17 *83:94 *242:24 0.000183111
18 *89:22 *242:24 0.000223704
19 *89:48 *242:24 0.00016203
20 *178:71 *242:24 0.000387203
21 *191:124 *242:24 1.22852e-05
22 *223:38 *242:24 0
23 *228:24 *242:24 0.000733334
24 *230:86 *242:24 2.06112e-05
25 *240:14 *242:24 0.000444613
*RES
1 *1074:Y *242:24 47.7506 
2 *242:24 *1193:A 9.3 
*END

*D_NET *243 0.0189418
*CONN
*I *1194:A I *D sky130_fd_sc_hd__buf_1
*I *1076:X O *D sky130_fd_sc_hd__a31o_1
*CAP
1 *1194:A 0
2 *1076:X 0.00393261
3 *243:20 0.00393261
4 *243:20 *1136:A 4.34543e-05
5 *937:A *243:20 0.000173803
6 *951:A *243:20 0.000136958
7 *956:A *243:20 1.14338e-05
8 *957:B *243:20 0.000454459
9 *970:B *243:20 0.00134452
10 *976:A2 *243:20 0
11 *1016:A2 *243:20 7.77505e-06
12 *1093:B1 *243:20 0.000317891
13 *1163:D *243:20 4.32258e-05
14 *26:28 *243:20 0.000289573
15 *44:22 *243:20 0.00524656
16 *48:36 *243:20 0.000512597
17 *80:38 *243:20 1.22759e-05
18 *82:12 *243:20 0.000386122
19 *83:48 *243:20 7.6997e-05
20 *89:48 *243:20 0.000423075
21 *90:24 *243:20 0.000517798
22 *95:53 *243:20 0.000955462
23 *121:50 *243:20 5.88478e-05
24 *131:36 *243:20 6.3713e-05
*RES
1 *1076:X *243:20 46.3125 
2 *243:20 *1194:A 9.3 
*END

*D_NET *244 0.0129256
*CONN
*I *1195:A I *D sky130_fd_sc_hd__buf_1
*I *1077:X O *D sky130_fd_sc_hd__a211o_1
*CAP
1 *1195:A 0.00259157
2 *1077:X 0.00116014
3 *244:12 0.00375171
4 *1195:A *976:A1 2.18902e-05
5 *244:12 *247:18 0.00103761
6 *244:12 *248:23 1.07453e-05
7 *976:A2 *1195:A 9.41642e-05
8 *976:C1 *1195:A 0.00137601
9 *1006:A3 *1195:A 5.38265e-05
10 *1039:B1 *244:12 1.30694e-05
11 *1187:A *244:12 0.000121165
12 *126:18 *1195:A 0.00101468
13 *141:36 *1195:A 0.000118433
14 *145:75 *244:12 0.000303908
15 *151:27 *244:12 1.37164e-05
16 *157:18 *244:12 0.000991379
17 *192:20 *244:12 6.05161e-06
18 *201:52 *244:12 9.60875e-05
19 *234:95 *244:12 0.000149457
*RES
1 *1077:X *244:12 42.2107 
2 *244:12 *1195:A 43.0143 
*END

*D_NET *245 0.0141023
*CONN
*I *1196:A I *D sky130_fd_sc_hd__buf_1
*I *1078:Y O *D sky130_fd_sc_hd__o31ai_2
*CAP
1 *1196:A 0
2 *1078:Y 0.00209499
3 *245:20 0.00102097
4 *245:14 0.00311596
5 seg[0] *245:14 5.40624e-05
6 seg[4] *245:20 9.60337e-06
7 *1029:A1 *245:20 0.00120617
8 *1032:A2 *245:14 1.75318e-05
9 *1035:A1_N *245:14 0.000327537
10 *1037:A2 *245:20 0.00028018
11 *1078:A3 *245:14 2.01732e-05
12 *1093:B1 *245:14 0.000216489
13 *1094:A1 *245:14 5.11752e-05
14 *1100:B *245:14 9.59532e-06
15 *56:22 *245:14 0.000451384
16 *83:94 *245:14 0.00174769
17 *106:37 *245:14 0
18 *116:60 *245:14 0.000154668
19 *128:12 *245:20 0.000441536
20 *166:26 *245:20 0.000198202
21 *180:39 *245:20 3.90513e-05
22 *184:14 *245:20 0.00253462
23 *186:28 *245:14 1.67759e-05
24 *196:31 *245:14 5.51327e-05
25 *221:12 *245:14 2.16935e-05
26 *242:24 *245:14 1.71551e-05
*RES
1 *1078:Y *245:14 25.9885 
2 *245:14 *245:20 43.2768 
3 *245:20 *1196:A 9.3 
*END

*D_NET *246 0.00412912
*CONN
*I *1197:A I *D sky130_fd_sc_hd__buf_1
*I *1080:Y O *D sky130_fd_sc_hd__nand2_1
*CAP
1 *1197:A 0.000575693
2 *1080:Y 0.000575693
3 *28:32 *1197:A 0
4 *128:12 *1197:A 0.00140198
5 *166:26 *1197:A 0
6 *180:39 *1197:A 0.00157575
*RES
1 *1080:Y *1197:A 48.975 
*END

*D_NET *247 0.0255269
*CONN
*I *1132:A I *D sky130_fd_sc_hd__and2_1
*I *948:A I *D sky130_fd_sc_hd__inv_2
*I *972:A1 I *D sky130_fd_sc_hd__o221a_1
*I *1172:Q O *D sky130_fd_sc_hd__dfxtp_1
*CAP
1 *1132:A 0.000830307
2 *948:A 5.83514e-05
3 *972:A1 0.000531553
4 *1172:Q 0.00116263
5 *247:71 0.00318197
6 *247:46 0.00146051
7 *247:18 0.0043849
8 *1132:A *270:10 1.29975e-05
9 *247:18 *1009:A2 0.000243904
10 *247:18 *248:23 0.000585991
11 *247:18 *248:41 0.000221677
12 *247:46 *1009:A2 2.06178e-05
13 *247:46 *1056:A1 0.000128318
14 *247:71 *1020:A 0.000246806
15 *247:71 *1124:A1 0.000197845
16 *954:B_N *1132:A 7.58537e-05
17 *972:A2 *972:A1 0.000584113
18 *985:C1 *948:A 2.70549e-05
19 *985:C1 *1132:A 7.05967e-05
20 *1004:C1 *247:46 8.93791e-05
21 *1007:D *247:46 4.26058e-06
22 *1011:B1 *247:18 2.39153e-05
23 *1039:B1 *247:46 9.85571e-05
24 *1096:A *247:46 1.21258e-05
25 *1132:B *1132:A 1.53589e-05
26 *1137:A *247:71 5.38655e-05
27 *1146:S *247:46 0.000112377
28 *1165:CLK *972:A1 0
29 *1187:A *247:46 1.24368e-05
30 *21:34 *247:18 0.000560458
31 *21:34 *247:71 0.00138258
32 *31:28 *247:18 0
33 *43:36 *948:A 0.000111169
34 *43:36 *1132:A 0.000750123
35 *59:18 *247:18 5.50052e-05
36 *62:14 *247:46 9.58181e-05
37 *64:32 *247:46 8.94556e-05
38 *71:14 *247:46 1.08359e-05
39 *71:20 *247:46 0.00160322
40 *77:10 *247:46 0
41 *77:117 *247:46 2.42516e-05
42 *78:99 *1132:A 0.000230284
43 *82:54 *247:18 2.17548e-05
44 *83:30 *247:46 9.13872e-05
45 *84:81 *247:18 4.65519e-05
46 *85:63 *247:71 0.000742946
47 *90:34 *247:46 7.18124e-05
48 *93:12 *1132:A 1.29901e-05
49 *95:53 *247:18 1.90936e-05
50 *96:42 *948:A 1.00887e-05
51 *110:53 *247:71 7.4413e-05
52 *115:14 *247:18 0
53 *128:44 *247:71 0.000810433
54 *141:14 *247:71 0.000641111
55 *141:18 *247:71 3.46078e-05
56 *141:36 *247:18 0.000150919
57 *141:36 *247:71 0.000126847
58 *146:26 *247:46 9.54798e-06
59 *146:26 *247:71 0.00107157
60 *157:18 *247:18 8.99942e-05
61 *191:97 *247:46 0.000123095
62 *192:20 *247:46 2.11419e-05
63 *207:38 *1132:A 0
64 *234:91 *247:46 0.000602241
65 *234:93 *247:46 5.49489e-05
66 *234:95 *247:46 5.65955e-05
67 *234:148 *247:46 3.93631e-05
68 *234:163 *972:A1 6.31578e-05
69 *235:86 *247:71 8.92267e-05
70 *236:39 *247:46 4.27338e-05
71 *238:70 *247:46 9.25014e-06
72 *244:12 *247:18 0.00103761
*RES
1 *1172:Q *247:18 40.6451 
2 *247:18 *247:46 48.7162 
3 *247:46 *972:A1 21.2464 
4 *247:18 *247:71 13.8026 
5 *247:71 *948:A 15.2911 
6 *247:71 *1132:A 30.7911 
*END

*D_NET *248 0.0143315
*CONN
*I *1134:A I *D sky130_fd_sc_hd__and2_1
*I *976:A1 I *D sky130_fd_sc_hd__a211o_2
*I *985:B2 I *D sky130_fd_sc_hd__o221a_1
*I *1173:Q O *D sky130_fd_sc_hd__dfxtp_1
*CAP
1 *1134:A 0
2 *976:A1 0.000254085
3 *985:B2 0.00068504
4 *1173:Q 0
5 *248:41 0.00210513
6 *248:23 0.00264131
7 *248:4 0.0014753
8 *248:23 *1003:C 2.75856e-05
9 *248:23 *255:38 0.000253021
10 *976:A2 *976:A1 3.61656e-05
11 *976:C1 *976:A1 0.000201222
12 *976:C1 *248:41 9.6588e-05
13 *1006:A3 *976:A1 0.000621812
14 *1025:A2 *248:23 2.97629e-05
15 *1025:B1 *248:23 1.25275e-05
16 *1033:B *985:B2 0.000121442
17 *1039:A1 *985:B2 0.000681513
18 *1039:A1 *248:23 0.000610182
19 *1125:A *248:41 0.000567872
20 *1134:B *248:41 2.06178e-05
21 *1151:A *248:23 3.15509e-05
22 *1173:CLK *985:B2 6.24774e-05
23 *1195:A *976:A1 2.18902e-05
24 *51:14 *248:41 0.00131059
25 *56:22 *248:41 0.000135509
26 *64:68 *248:41 0.000178671
27 *93:53 *248:23 9.59152e-05
28 *115:12 *976:A1 0.000432736
29 *115:14 *248:23 1.5289e-05
30 *115:14 *248:41 1.03479e-05
31 *116:98 *985:B2 0.000176324
32 *118:59 *976:A1 5.50052e-05
33 *127:31 *248:41 0.000117673
34 *145:75 *248:23 8.6229e-06
35 *149:18 *248:41 0.000419305
36 *244:12 *248:23 1.07453e-05
37 *247:18 *248:23 0.000585991
38 *247:18 *248:41 0.000221677
*RES
1 *1173:Q *248:4 9.3 
2 *248:4 *985:B2 28.2821 
3 *248:4 *248:23 19.1071 
4 *248:23 *248:41 47.0179 
5 *248:41 *976:A1 23.8 
6 *248:23 *1134:A 13.8 
*END

*D_NET *249 0.0147028
*CONN
*I *1008:A1 I *D sky130_fd_sc_hd__a211o_1
*I *1021:A1 I *D sky130_fd_sc_hd__a21oi_1
*I *1136:A I *D sky130_fd_sc_hd__and2_1
*I *1174:Q O *D sky130_fd_sc_hd__dfxtp_1
*CAP
1 *1008:A1 0.000980823
2 *1021:A1 0.000564272
3 *1136:A 0.000913017
4 *1174:Q 0.000125719
5 *249:33 0.00315737
6 *249:8 0.00265101
7 *249:33 *1040:A1 0
8 *249:33 *265:16 0
9 *956:A *1136:A 0.000784385
10 *1008:C1 *1008:A1 3.4846e-06
11 *1019:B *249:33 5.72239e-05
12 *1021:A2 *1021:A1 7.95355e-05
13 *1023:A0 *249:33 0.000597296
14 *1076:A1 *1136:A 0
15 *1076:A1 *249:33 0
16 *1130:B *249:33 4.5727e-05
17 *1142:A *1008:A1 5.45307e-05
18 *1142:B *1008:A1 0.00117763
19 *1142:B *249:33 0.000799719
20 *1163:D *1136:A 0.000133178
21 *1184:RESET_B *1021:A1 0.000554213
22 *28:16 *249:33 0
23 *28:24 *1136:A 0
24 *63:30 *249:33 0
25 *67:8 *1136:A 0.000261112
26 *70:32 *1008:A1 4.22135e-06
27 *93:22 *1008:A1 0
28 *93:22 *249:33 8.38223e-05
29 *94:8 *1136:A 0.000163761
30 *115:42 *249:33 4.58764e-05
31 *120:26 *249:33 0
32 *138:34 *1136:A 8.6229e-06
33 *138:34 *249:33 0.00012195
34 *152:42 *1008:A1 0.000610035
35 *205:57 *1136:A 0
36 *209:18 *1136:A 2.36238e-05
37 *233:77 *249:8 0.000183477
38 *239:10 *249:33 0.000473696
39 *243:20 *1136:A 4.34543e-05
*RES
1 *1174:Q *249:8 15.5679 
2 *249:8 *1136:A 33.7464 
3 *249:8 *249:33 34.625 
4 *249:33 *1021:A1 20.9071 
5 *249:33 *1008:A1 45.6036 
*END

*D_NET *250 0.0247528
*CONN
*I *1004:A1 I *D sky130_fd_sc_hd__a211o_1
*I *1138:A I *D sky130_fd_sc_hd__and2_1
*I *1040:A0 I *D sky130_fd_sc_hd__mux2_1
*I *1175:Q O *D sky130_fd_sc_hd__dfxtp_1
*CAP
1 *1004:A1 1.69531e-05
2 *1138:A 6.39107e-05
3 *1040:A0 0.000424831
4 *1175:Q 0
5 *250:78 0.00256308
6 *250:64 0.00433225
7 *250:29 0.00307423
8 *250:4 0.00164903
9 *1040:A0 *1040:A1 9.67754e-05
10 *1040:A0 *271:20 0.00137004
11 *250:64 *255:38 0.000806559
12 *250:78 *260:36 3.08366e-05
13 *992:B1 *250:78 6.57032e-05
14 *1000:B1 *250:64 0.00031245
15 *1004:B1 *250:78 7.54868e-05
16 *1004:C1 *1004:A1 5.33005e-05
17 *1040:S *1040:A0 1.98839e-05
18 *1076:A3 *250:29 7.53537e-05
19 *1105:A *250:78 4.00349e-05
20 *1111:S *250:64 0.00019072
21 *1116:A *250:64 0.0001239
22 *1139:A *250:64 0.000491417
23 *1166:D *250:64 0.000542883
24 *1182:RESET_B *250:78 0.000713096
25 *19:12 *250:29 0.000456379
26 *44:22 *250:29 2.53061e-05
27 *44:22 *250:64 0.000632439
28 *81:92 *250:64 5.19805e-05
29 *81:92 *250:78 0.000150899
30 *84:89 *250:64 0.000107843
31 *84:130 *250:78 5.25862e-06
32 *89:48 *250:78 0.000332677
33 *101:26 *1040:A0 0.00103834
34 *109:26 *250:29 8.78754e-05
35 *134:33 *1138:A 3.68578e-05
36 *144:20 *250:78 0
37 *145:41 *250:78 0.000888279
38 *169:16 *1138:A 3.49234e-05
39 *169:35 *250:64 0.00106883
40 *173:20 *250:29 9.38921e-05
41 *173:38 *1040:A0 0.000180627
42 *187:12 *1040:A0 0.000178503
43 *190:30 *1040:A0 0.000317239
44 *206:34 *250:78 4.61565e-05
45 *209:18 *250:29 0.000480072
46 *227:51 *250:64 0.000196083
47 *227:51 *250:78 0.000186826
48 *235:10 *250:78 0.000123588
49 *238:70 *1004:A1 5.33005e-05
50 *239:39 *250:29 0.000454665
51 *240:14 *250:78 0.000271973
52 *242:24 *250:78 0.000119247
*RES
1 *1175:Q *250:4 9.3 
2 *250:4 *1040:A0 37.4964 
3 *250:4 *250:29 32.7857 
4 *250:29 *1138:A 14.9875 
5 *250:29 *250:64 45.6349 
6 *250:64 *250:78 49.8036 
7 *250:78 *1004:A1 14.3357 
*END

*D_NET *251 0.0157457
*CONN
*I *1056:A1 I *D sky130_fd_sc_hd__o211ai_1
*I *1097:B2 I *D sky130_fd_sc_hd__a221o_1
*I *1140:A I *D sky130_fd_sc_hd__and2_1
*I *1176:Q O *D sky130_fd_sc_hd__dfxtp_1
*CAP
1 *1056:A1 0.000549646
2 *1097:B2 0.0010201
3 *1140:A 0.00130196
4 *1176:Q 0.00013257
5 *251:16 0.00360694
6 *251:6 0.00196711
7 *1056:A1 *1041:A0 7.82935e-05
8 *1097:B2 *1055:A2 7.05801e-05
9 *1097:B2 *261:14 0.000254729
10 *251:6 *973:A1 6.10411e-05
11 *251:16 *973:A1 4.10843e-05
12 *950:B *1140:A 3.30259e-05
13 *953:C1 *1097:B2 4.90694e-06
14 *959:A1 *1097:B2 4.16148e-05
15 *965:A *1097:B2 0.000215809
16 *972:C1 *1056:A1 1.10978e-05
17 *1005:C *251:6 5.6647e-05
18 *1026:A1 *1140:A 5.49489e-05
19 *1032:A1 *251:16 0.00013926
20 *1032:A2 *251:16 0.000116011
21 *1038:A *251:16 5.49995e-05
22 *1039:B1 *251:16 5.50052e-05
23 *1058:C *1097:B2 0.000180079
24 *1058:D *1097:B2 0.000140856
25 *1078:A3 *1097:B2 2.6032e-06
26 *1078:A3 *251:16 7.31784e-05
27 *1097:A2 *1056:A1 2.21972e-05
28 *1097:B1 *1097:B2 5.09596e-06
29 *1097:C1 *1097:B2 5.33005e-05
30 *1100:B *251:16 0
31 *1132:B *1140:A 0
32 *1146:S *1056:A1 0
33 *1162:D *1140:A 1.64343e-05
34 *32:64 *1140:A 0.000184603
35 *43:36 *1140:A 0.000392933
36 *65:28 *1056:A1 0.000151657
37 *81:28 *1097:B2 2.64044e-05
38 *90:84 *251:16 5.05664e-05
39 *97:20 *1097:B2 9.85313e-05
40 *98:79 *1097:B2 9.77264e-06
41 *100:26 *1140:A 4.37451e-05
42 *108:18 *1097:B2 0.00021386
43 *110:70 *1056:A1 0.000250725
44 *110:78 *1056:A1 0.000102206
45 *119:46 *251:16 9.23883e-05
46 *122:62 *1097:B2 9.69455e-05
47 *123:22 *1097:B2 7.58103e-05
48 *123:22 *1140:A 0.000107031
49 *123:22 *251:16 1.21258e-05
50 *123:80 *251:16 0.00113944
51 *158:20 *1140:A 0.0005642
52 *160:20 *1097:B2 2.63501e-05
53 *161:12 *1097:B2 3.64479e-05
54 *174:73 *1140:A 0.000481421
55 *194:14 *1056:A1 0
56 *200:30 *1056:A1 0.000217312
57 *204:28 *1056:A1 9.59532e-06
58 *222:30 *1097:B2 0.000107157
59 *228:24 *251:16 0.000257619
60 *230:61 *1140:A 1.15058e-05
61 *236:39 *1140:A 8.40344e-05
62 *236:156 *1140:A 0.000399974
63 *238:70 *1056:A1 1.18544e-05
64 *247:46 *1056:A1 0.000128318
*RES
1 *1176:Q *251:6 11.0679 
2 *251:6 *251:16 28.5357 
3 *251:16 *1140:A 42.4071 
4 *251:16 *1097:B2 49.8084 
5 *251:6 *1056:A1 29.9607 
*END

*D_NET *252 0.0274174
*CONN
*I *972:B2 I *D sky130_fd_sc_hd__o221a_1
*I *1120:A1 I *D sky130_fd_sc_hd__mux2_1
*I *276:DIODE I *D sky130_fd_sc_hd__diode_2
*I *1167:Q O *D sky130_fd_sc_hd__dfxtp_1
*CAP
1 *972:B2 0.00109105
2 *1120:A1 0.000273089
3 *276:DIODE 0
4 *1167:Q 0.00400734
5 *252:56 0.00156836
6 *252:48 0.0038258
7 *252:20 0.00762891
8 *972:B2 *268:30 9.00639e-05
9 *252:48 *1007:C 2.69931e-05
10 *252:48 *255:71 0.000261801
11 *945:A1 *972:B2 5.76771e-05
12 *950:A *252:48 0.000185325
13 *972:A2 *972:B2 0.000178847
14 *972:B1 *972:B2 5.49489e-05
15 *972:C1 *972:B2 5.33005e-05
16 *1009:A1 *972:B2 0.000430605
17 *1009:A1 *252:48 2.34366e-05
18 *1026:S *252:48 3.62331e-05
19 *1064:B *252:48 0.000157171
20 *1068:A *252:20 5.00194e-05
21 *1079:B1 *252:48 9.21611e-05
22 *1092:A *252:20 4.65519e-05
23 *1120:S *1120:A1 7.02611e-05
24 *1161:D *252:56 0.000211888
25 *1168:CLK *252:48 0.000670645
26 *1183:CLK *252:48 5.33005e-05
27 *1183:CLK *252:56 2.95642e-05
28 *1183:D *252:48 5.38576e-05
29 *1183:RESET_B *252:56 7.71654e-05
30 *32:64 *252:48 0
31 *39:28 *252:56 2.11419e-05
32 *43:26 *252:48 4.1611e-05
33 *54:12 *252:48 5.42151e-05
34 *55:14 *252:20 0.000123836
35 *58:12 *1120:A1 4.40028e-05
36 *58:12 *252:56 4.02664e-05
37 *64:32 *972:B2 0.000741285
38 *64:32 *252:48 0.000788005
39 *83:30 *252:48 0.000717269
40 *88:70 *972:B2 0.000107449
41 *89:22 *972:B2 0.000451319
42 *89:22 *252:48 7.59906e-05
43 *93:22 *252:56 0.000123694
44 *103:32 *252:48 0.000106801
45 *104:22 *252:56 0
46 *106:95 *252:48 0.000186842
47 *191:16 *252:20 8.19176e-05
48 *191:128 *252:48 2.19818e-05
49 *197:46 *252:20 6.47405e-05
50 *203:24 *252:48 9.41642e-05
51 *204:28 *252:48 0.00141562
52 *230:61 *252:48 0.000388569
53 *233:137 *252:48 0.000385277
54 *234:163 *972:B2 3.50409e-05
*RES
1 *1167:Q *252:20 33.7635 
2 *252:20 *252:48 47.2121 
3 *252:48 *252:56 28.4821 
4 *252:56 *276:DIODE 9.3 
5 *252:56 *1120:A1 13.55 
6 *252:20 *972:B2 23.1307 
*END

*D_NET *253 0.00755373
*CONN
*I *985:A1 I *D sky130_fd_sc_hd__o221a_1
*I *1122:A1 I *D sky130_fd_sc_hd__mux2_1
*I *1168:Q O *D sky130_fd_sc_hd__dfxtp_1
*CAP
1 *985:A1 0.000163062
2 *1122:A1 0.000974226
3 *1168:Q 0.000374085
4 *253:8 0.00151137
5 *1122:A1 *259:50 0
6 *1033:A *985:A1 6.69937e-05
7 *1033:B *1122:A1 0.000169654
8 *1033:B *253:8 0.00026163
9 *1034:A2 *1122:A1 0.000365224
10 *1046:B *1122:A1 5.50052e-05
11 *1071:B_N *1122:A1 0.000311818
12 *1071:B_N *253:8 0.000386462
13 *1091:A1 *1122:A1 1.52131e-05
14 *1132:B *253:8 6.49408e-05
15 *1140:B *253:8 5.35475e-05
16 *24:26 *985:A1 0.000229981
17 *59:18 *1122:A1 5.36e-05
18 *60:14 *1122:A1 1.52217e-05
19 *66:20 *1122:A1 0
20 *79:12 *1122:A1 0
21 *116:82 *985:A1 4.6025e-06
22 *116:98 *985:A1 3.19583e-05
23 *116:98 *1122:A1 0.000132255
24 *124:26 *1122:A1 0.000452223
25 *130:78 *1122:A1 0.00023948
26 *157:32 *1122:A1 0.00035869
27 *185:20 *1122:A1 0.0002404
28 *191:32 *1122:A1 9.67754e-05
29 *205:22 *985:A1 0.000114616
30 *208:81 *253:8 0.000340464
31 *220:24 *1122:A1 0.000175892
32 *230:61 *253:8 0.000294337
*RES
1 *1168:Q *253:8 23.7911 
2 *253:8 *1122:A1 36.5232 
3 *253:8 *985:A1 21.9113 
*END

*D_NET *254 0.0247717
*CONN
*I *1124:A1 I *D sky130_fd_sc_hd__mux2_1
*I *1020:A I *D sky130_fd_sc_hd__nand2_1
*I *1169:Q O *D sky130_fd_sc_hd__dfxtp_1
*CAP
1 *1124:A1 0.003696
2 *1020:A 0.00232343
3 *1169:Q 0.000149767
4 *254:10 0.00616919
5 *1020:A *1054:A 8.19176e-05
6 *1020:A *1148:A0 0
7 *1020:A *267:26 0.000388927
8 *1124:A1 *1103:A0 0.000726257
9 *1124:A1 *267:40 7.67203e-05
10 *952:D *1020:A 0
11 *977:B *1020:A 0.000517144
12 *985:C1 *1124:A1 0.000135775
13 *985:C1 *254:10 0.000176242
14 *1061:A2 *1124:A1 0.00173158
15 *1078:A3 *1020:A 0.000292769
16 *1097:B1 *1020:A 1.42744e-05
17 *1098:B1 *1020:A 0.000141784
18 *1137:A *1020:A 0.000670347
19 *1137:A *1124:A1 0.000426492
20 *1145:A *1124:A1 0.00010255
21 *1179:CLK *1124:A1 5.55677e-05
22 *22:12 *1124:A1 0.000111243
23 *28:24 *1124:A1 0.000451692
24 *44:22 *1124:A1 4.58835e-05
25 *78:84 *1020:A 0
26 *80:38 *1124:A1 0.00022588
27 *81:28 *1020:A 0.00037734
28 *85:63 *1020:A 0.00167483
29 *85:63 *1124:A1 4.65519e-05
30 *87:32 *1020:A 0.000844672
31 *93:22 *1124:A1 0.000121926
32 *98:42 *1124:A1 3.9216e-05
33 *101:26 *1124:A1 1.25167e-05
34 *109:26 *1124:A1 4.47273e-05
35 *109:40 *1124:A1 0.000502425
36 *123:80 *1020:A 0.000154041
37 *139:18 *1124:A1 6.91442e-05
38 *200:30 *1124:A1 2.35795e-05
39 *201:100 *1124:A1 1.61703e-05
40 *201:116 *1124:A1 1.41605e-05
41 *201:116 *254:10 1.61405e-05
42 *208:75 *1020:A 0.000124243
43 *208:81 *254:10 3.76782e-05
44 *215:12 *1124:A1 3.48742e-05
45 *219:20 *1124:A1 0.00118152
46 *233:51 *1124:A1 8.28487e-05
47 *233:53 *1124:A1 0.000107753
48 *235:86 *1020:A 8.92267e-05
49 *247:71 *1020:A 0.000246806
50 *247:71 *1124:A1 0.000197845
*RES
1 *1169:Q *254:10 16.7375 
2 *254:10 *1020:A 43.3379 
3 *254:10 *1124:A1 46.374 
*END

*D_NET *255 0.021715
*CONN
*I *1040:A1 I *D sky130_fd_sc_hd__mux2_1
*I *1126:A1 I *D sky130_fd_sc_hd__mux2_1
*I *1170:Q O *D sky130_fd_sc_hd__dfxtp_1
*CAP
1 *1040:A1 0.000899088
2 *1126:A1 0.0010339
3 *1170:Q 0.000744296
4 *255:71 0.00278496
5 *255:38 0.00236877
6 *255:20 0.00396505
7 *255:38 *259:50 9.65329e-06
8 *255:71 *265:16 2.88018e-06
9 *255:71 *270:10 0.00053267
10 *938:A *255:20 0.000177596
11 *981:B1 *255:71 0.00012356
12 *1025:A2 *255:38 0.000172373
13 *1028:B1 *255:20 0.00011471
14 *1040:A0 *1040:A1 9.67754e-05
15 *1040:S *1040:A1 0.000643354
16 *1086:A *255:20 8.85532e-05
17 *1130:C *255:20 0.000209583
18 *1130:C *255:71 0.000520373
19 *1166:D *255:38 0.000806559
20 *20:16 *255:71 8.12221e-05
21 *57:87 *255:20 0.000211108
22 *57:87 *255:71 1.10632e-05
23 *69:14 *255:71 7.78006e-05
24 *81:142 *1126:A1 0.000263
25 *82:54 *1126:A1 0.000260683
26 *93:22 *1040:A1 0.000189442
27 *93:22 *255:71 2.84026e-05
28 *96:28 *255:20 0.000312865
29 *96:42 *255:71 0.000642664
30 *102:16 *255:71 7.62712e-05
31 *115:14 *255:38 2.79167e-05
32 *115:42 *255:38 3.30259e-05
33 *116:98 *255:20 0
34 *121:85 *1126:A1 0.00038021
35 *125:32 *255:38 8.8376e-05
36 *155:133 *255:71 8.66208e-05
37 *157:32 *255:20 2.5448e-05
38 *167:10 *255:71 0.000361027
39 *209:18 *255:20 0.000309101
40 *227:18 *255:20 8.55871e-05
41 *227:51 *255:38 0.000972499
42 *233:27 *255:71 9.95173e-06
43 *233:137 *255:71 4.44582e-05
44 *236:12 *255:71 0.000342302
45 *236:33 *255:71 0.000177821
46 *248:23 *255:38 0.000253021
47 *249:33 *1040:A1 0
48 *250:64 *255:38 0.000806559
49 *252:48 *255:71 0.000261801
*RES
1 *1170:Q *255:20 37.7464 
2 *255:20 *255:38 47.0536 
3 *255:38 *1126:A1 23.2464 
4 *255:20 *255:71 46.4464 
5 *255:71 *1040:A1 31.5857 
*END

*D_NET *256 0.013718
*CONN
*I *1097:A1 I *D sky130_fd_sc_hd__a221o_1
*I *1128:A1 I *D sky130_fd_sc_hd__mux2_1
*I *1171:Q O *D sky130_fd_sc_hd__dfxtp_1
*CAP
1 *1097:A1 0.000256235
2 *1128:A1 0
3 *1171:Q 0.00154593
4 *256:34 0.00121775
5 *256:22 0.00301991
6 *1097:A1 *1107:A0 2.82104e-05
7 *256:22 *1107:A0 7.74535e-05
8 *958:B *256:34 0.000366663
9 *982:A *256:34 0.000178425
10 *982:B *256:22 1.64621e-05
11 *1029:B1_N *256:34 0.000271026
12 *1031:A *256:22 0.000324601
13 *1031:B *256:22 4.68861e-05
14 *1042:A1 *256:22 2.83627e-05
15 *1042:A3 *256:22 9.58126e-05
16 *1049:A *256:22 4.73662e-05
17 *1058:D *256:22 0
18 *1078:A3 *1097:A1 3.2674e-06
19 *1095:A1 *256:22 0.000178774
20 *1095:A2 *256:22 0.000199715
21 *1097:A2 *1097:A1 0.000162387
22 *1097:B1 *1097:A1 5.49103e-05
23 *1131:A *256:34 5.49544e-05
24 *1159:D *256:22 9.61497e-05
25 *1192:A *256:34 5.33005e-05
26 *57:22 *256:34 0.000270288
27 *78:84 *1097:A1 0.000133715
28 *78:84 *256:22 0.00010922
29 *82:162 *256:34 0
30 *83:94 *256:34 2.11419e-05
31 *88:70 *256:22 0.000558305
32 *97:20 *256:34 0.000255612
33 *106:57 *256:22 0.000139287
34 *108:49 *256:34 0
35 *120:88 *256:22 2.36643e-05
36 *128:44 *256:22 3.09889e-05
37 *129:26 *256:22 0.000139331
38 *155:98 *1097:A1 7.74068e-05
39 *168:20 *256:34 0.00102816
40 *170:8 *256:22 2.59355e-05
41 *185:63 *256:34 0.000358847
42 *188:14 *256:22 9.99853e-05
43 *197:16 *256:34 0.00113264
44 *224:12 *256:34 0
45 *240:14 *256:34 0.000551664
46 *242:24 *256:34 0.000437262
*RES
1 *1171:Q *256:22 40.6929 
2 *256:22 *256:34 48.4286 
3 *256:34 *1128:A1 9.3 
4 *256:22 *1097:A1 18.8893 
*END

*D_NET *257 0.0167987
*CONN
*I *957:A I *D sky130_fd_sc_hd__nand2_1
*I *1107:A0 I *D sky130_fd_sc_hd__mux2_1
*I *1162:Q O *D sky130_fd_sc_hd__dfxtp_1
*CAP
1 *957:A 0.000187608
2 *1107:A0 0.000975703
3 *1162:Q 0.000742057
4 *257:49 0.00171455
5 *257:14 0.0032447
6 *257:14 *973:A1 9.34504e-05
7 *257:49 *263:50 1.80461e-05
8 *257:49 *268:30 1.90656e-05
9 *935:A *257:49 0.000245832
10 *937:A *257:49 0.000638904
11 *957:B *957:A 5.96846e-05
12 *977:A_N *1107:A0 0.00139356
13 *977:A_N *257:49 0.000178774
14 *986:B1 *257:49 1.44566e-05
15 *1003:A_N *257:49 6.41086e-06
16 *1011:B1 *957:A 5.04841e-06
17 *1032:A1 *257:14 2.18985e-05
18 *1032:A2 *1107:A0 5.65525e-05
19 *1032:A2 *257:14 8.55871e-05
20 *1038:A *257:14 1.48029e-05
21 *1038:B *257:14 0.000135795
22 *1066:A *257:49 0.000314353
23 *1078:A2 *257:14 3.09889e-05
24 *1078:A3 *257:14 5.33005e-05
25 *1078:B1 *257:14 0.000480489
26 *1078:B1 *257:49 0.000320268
27 *1087:A1 *1107:A0 0.000407187
28 *1095:A1 *1107:A0 0.00036365
29 *1095:A2 *1107:A0 4.06087e-07
30 *1097:A1 *1107:A0 2.82104e-05
31 *1107:S *1107:A0 7.14165e-05
32 *1117:D_N *257:49 6.09762e-05
33 *1125:A *957:A 0.000453551
34 *41:20 *257:49 0.000414705
35 *55:14 *257:49 0
36 *56:22 *257:49 0
37 *59:18 *957:A 0.000104293
38 *77:117 *257:49 0.000356147
39 *78:16 *257:49 2.03618e-05
40 *78:51 *257:49 9.18765e-06
41 *81:72 *257:49 2.82126e-05
42 *84:26 *1107:A0 0
43 *90:84 *257:14 3.30915e-05
44 *100:65 *257:49 4.98422e-05
45 *116:60 *257:14 0.000394555
46 *116:60 *257:49 9.41642e-05
47 *119:46 *257:14 0.000136682
48 *123:22 *257:14 0.000221815
49 *125:32 *257:49 4.73953e-05
50 *130:78 *257:49 5.11642e-05
51 *149:18 *257:49 0.000526317
52 *155:98 *1107:A0 0.000318999
53 *157:18 *257:49 4.15526e-05
54 *173:38 *257:14 0.000168598
55 *174:45 *1107:A0 0.000221894
56 *191:54 *257:49 0.0002349
57 *191:79 *257:49 0.000385855
58 *201:80 *257:49 8.7519e-05
59 *206:47 *257:49 0.000336697
60 *256:22 *1107:A0 7.74535e-05
*RES
1 *1162:Q *257:14 33.3179 
2 *257:14 *1107:A0 41.1571 
3 *257:14 *257:49 47.4196 
4 *257:49 *957:A 18.9964 
*END

*D_NET *258 0.0141716
*CONN
*I *1109:A0 I *D sky130_fd_sc_hd__mux2_1
*I *978:A I *D sky130_fd_sc_hd__or2_2
*I *1163:Q O *D sky130_fd_sc_hd__dfxtp_1
*CAP
1 *1109:A0 0
2 *978:A 0
3 *1163:Q 0.00143727
4 *258:34 0.00185627
5 *258:24 0.00225337
6 *258:22 0.00183436
7 *258:22 *1003:C 5.33005e-05
8 *258:22 *270:30 6.20244e-05
9 *258:24 *259:50 0.000178001
10 *258:34 *259:50 0.00017321
11 *937:A *258:34 0.000492887
12 *964:A *258:22 0.00101591
13 *978:B *258:34 0.00167101
14 *1011:A2 *258:24 0.000172839
15 *1011:A2 *258:34 0.000455505
16 *1011:B1 *258:34 0
17 *1025:A3 *258:24 4.31969e-05
18 *1027:A *258:22 9.72966e-05
19 *1039:A1 *258:22 9.94194e-05
20 *1065:A *258:34 0.000310589
21 *1085:A1 *258:22 8.25843e-06
22 *1085:S *258:22 2.91853e-05
23 *1113:S *258:34 0
24 *1130:C *258:22 6.09764e-05
25 *31:28 *258:24 0.000112438
26 *31:28 *258:34 0.00037147
27 *43:26 *258:24 4.19535e-05
28 *49:61 *258:22 0.000252678
29 *93:53 *258:24 9.54798e-06
30 *103:32 *258:22 5.65955e-05
31 *116:82 *258:22 0.000223469
32 *145:47 *258:22 0
33 *150:10 *258:34 6.96441e-05
34 *162:28 *258:22 0.000261806
35 *171:40 *258:22 0.00011173
36 *171:40 *258:24 8.6229e-06
37 *201:33 *258:22 8.39516e-05
38 *223:54 *258:24 0.000114847
39 *223:54 *258:34 9.54798e-06
40 *227:51 *258:24 0.000138416
*RES
1 *1163:Q *258:22 48.3357 
2 *258:22 *258:24 8.32143 
3 *258:24 *258:34 44.0536 
4 *258:34 *978:A 9.3 
5 *258:24 *1109:A0 13.8 
*END

*D_NET *259 0.0183012
*CONN
*I *1009:A2 I *D sky130_fd_sc_hd__o21a_1
*I *1111:A0 I *D sky130_fd_sc_hd__mux2_1
*I *1164:Q O *D sky130_fd_sc_hd__dfxtp_1
*CAP
1 *1009:A2 0.00146954
2 *1111:A0 0
3 *1164:Q 0.000583723
4 *259:50 0.00196039
5 *259:14 0.00401366
6 *1009:A2 *1041:A0 2.35215e-05
7 *1009:A2 *261:14 0.000339294
8 *1009:A2 *269:26 0.000809658
9 *259:14 *260:42 5.49544e-05
10 *259:14 *269:26 0.000112307
11 *259:50 *269:26 0.000487401
12 *1009:B1 *1009:A2 1.58163e-05
13 *1011:A2 *259:50 0.000353161
14 *1025:A3 *1009:A2 4.17657e-05
15 *1025:B1 *1009:A2 1.02704e-05
16 *1028:A1 *259:50 7.15331e-05
17 *1028:C1 *259:50 0.000117132
18 *1034:A2 *259:50 0
19 *1039:B1 *1009:A2 6.73482e-05
20 *1071:B_N *259:50 5.33005e-05
21 *1111:A1 *259:50 0.000285005
22 *1111:S *259:50 0.000177596
23 *1122:A1 *259:50 0
24 *1164:CLK *259:14 2.6913e-05
25 *1187:A *1009:A2 0.000243249
26 *21:34 *1009:A2 4.08749e-05
27 *44:22 *259:14 0.000282954
28 *44:22 *259:50 0.000494266
29 *63:30 *1009:A2 4.88232e-05
30 *64:68 *259:14 6.63677e-05
31 *77:145 *259:14 0.000446613
32 *95:73 *1009:A2 1.49122e-05
33 *112:57 *259:14 6.18438e-05
34 *115:42 *259:50 0.00111642
35 *120:39 *259:50 0.000753102
36 *130:78 *259:50 0.00101436
37 *134:10 *259:50 2.12647e-05
38 *141:36 *1009:A2 0.000137192
39 *167:10 *259:50 0.000165649
40 *169:35 *259:50 0.000138416
41 *190:30 *259:14 0.000123512
42 *192:20 *1009:A2 6.46679e-05
43 *198:18 *259:14 0.000726551
44 *209:59 *259:50 0.000515454
45 *226:30 *259:50 3.91744e-05
46 *236:73 *259:14 8.58472e-05
47 *247:18 *1009:A2 0.000243904
48 *247:46 *1009:A2 2.06178e-05
49 *255:38 *259:50 9.65329e-06
50 *258:24 *259:50 0.000178001
51 *258:34 *259:50 0.00017321
*RES
1 *1164:Q *259:14 29.0736 
2 *259:14 *259:50 46.4614 
3 *259:50 *1111:A0 9.3 
4 *259:14 *1009:A2 32.9936 
*END

*D_NET *260 0.0148871
*CONN
*I *1005:B I *D sky130_fd_sc_hd__or3_2
*I *1113:A0 I *D sky130_fd_sc_hd__mux2_1
*I *1165:Q O *D sky130_fd_sc_hd__dfxtp_1
*CAP
1 *1005:B 0.000314493
2 *1113:A0 0.000123873
3 *1165:Q 0.000182595
4 *260:42 0.00173987
5 *260:36 0.00232732
6 *260:8 0.00120841
7 *940:A *260:42 4.72595e-05
8 *967:A *1005:B 0.000198325
9 *967:A *260:36 0.000394875
10 *988:A *260:36 8.10806e-05
11 *988:A *260:42 0.000449698
12 *992:A1 *260:36 0.00010769
13 *992:B1 *260:36 0.000136676
14 *1004:B1 *260:36 3.6337e-05
15 *1044:B *260:42 0.00014168
16 *1153:A *260:36 6.24939e-05
17 *1164:CLK *260:42 0.000293107
18 *1165:D *260:8 7.34668e-05
19 *1167:CLK *260:42 0.000860762
20 *1182:RESET_B *260:36 0.000376486
21 *1182:RESET_B *260:42 0.000100248
22 *26:28 *260:42 0.000355732
23 *82:12 *260:42 0.000440698
24 *112:18 *1005:B 5.54478e-05
25 *118:63 *260:36 0.000137983
26 *127:31 *260:42 0.00147828
27 *135:8 *260:36 0.000135028
28 *144:20 *1005:B 0.000197939
29 *144:20 *260:36 0.000313343
30 *180:39 *260:42 0
31 *189:34 *260:42 1.73698e-05
32 *190:30 *1113:A0 2.52164e-05
33 *195:12 *1005:B 0.000189783
34 *195:12 *260:36 0.000270243
35 *197:46 *1113:A0 5.24002e-05
36 *198:18 *1113:A0 7.52178e-05
37 *206:18 *260:42 0.00126473
38 *216:14 *260:42 0.00040015
39 *238:70 *260:36 0.000135028
40 *240:14 *260:36 0
41 *250:78 *260:36 3.08366e-05
42 *259:14 *260:42 5.49544e-05
*RES
1 *1165:Q *260:8 15.9786 
2 *260:8 *260:36 44.6607 
3 *260:36 *260:42 49.6607 
4 *260:42 *1113:A0 20.55 
5 *260:8 *1005:B 29.675 
*END

*D_NET *261 0.0132616
*CONN
*I *1055:A2 I *D sky130_fd_sc_hd__o31a_1
*I *1115:A0 I *D sky130_fd_sc_hd__mux2_1
*I *1166:Q O *D sky130_fd_sc_hd__dfxtp_1
*CAP
1 *1055:A2 0.00140682
2 *1115:A0 0.000591942
3 *1166:Q 0.000855638
4 *261:14 0.0028544
5 *1055:A2 *267:40 0.000385317
6 *959:A1 *1055:A2 0.000169917
7 *959:A1 *261:14 2.49587e-05
8 *959:B1 *1055:A2 6.19932e-05
9 *965:A *261:14 2.30116e-06
10 *984:B *1115:A0 9.54798e-06
11 *1009:A2 *261:14 0.000339294
12 *1032:A1 *261:14 0.000173004
13 *1039:B1 *261:14 0.000858017
14 *1055:A1 *1055:A2 4.88637e-05
15 *1055:A3 *1055:A2 5.71472e-05
16 *1055:B1 *1055:A2 0.00157397
17 *1075:A2 *1055:A2 7.29646e-05
18 *1097:B2 *1055:A2 7.05801e-05
19 *1097:B2 *261:14 0.000254729
20 *1107:S *1115:A0 0.000246789
21 *1152:A1 *1115:A0 0.000567379
22 *81:28 *1115:A0 0.000621981
23 *97:43 *1055:A2 0.000166827
24 *108:18 *1055:A2 2.95076e-06
25 *108:18 *261:14 1.91937e-05
26 *119:46 *261:14 0.000114671
27 *123:22 *261:14 0.000257566
28 *146:26 *1055:A2 0
29 *160:20 *1115:A0 0.000621981
30 *160:20 *261:14 2.06112e-05
31 *167:32 *1055:A2 0.000108497
32 *168:49 *1055:A2 0.000458354
33 *170:35 *261:14 0.000149299
34 *192:20 *261:14 5.25192e-06
35 *194:8 *1055:A2 8.88574e-05
*RES
1 *1166:Q *261:14 33.4875 
2 *261:14 *1115:A0 29.542 
3 *261:14 *1055:A2 46.0054 
*END

*D_NET *262 0.0135258
*CONN
*I *973:A1 I *D sky130_fd_sc_hd__a21o_1
*I *1085:A0 I *D sky130_fd_sc_hd__mux2_1
*I *1157:Q O *D sky130_fd_sc_hd__dfxtp_1
*CAP
1 *973:A1 0.00184404
2 *1085:A0 0.000466392
3 *1157:Q 0.000759789
4 *262:12 0.00307022
5 *985:B1 *262:12 8.6229e-06
6 *1005:C *973:A1 0.000542435
7 *1027:A *1085:A0 0.000256242
8 *1071:A *262:12 7.51948e-05
9 *1078:A2 *973:A1 0.00057444
10 *1078:A3 *973:A1 5.49544e-05
11 *1078:B1 *973:A1 0.00060396
12 *39:28 *973:A1 1.64343e-05
13 *99:43 *1085:A0 0.000437622
14 *116:60 *973:A1 0.000189804
15 *123:6 *973:A1 0.000178425
16 *123:22 *262:12 7.52065e-05
17 *123:80 *973:A1 0.00155353
18 *126:10 *1085:A0 1.12323e-05
19 *126:18 *1085:A0 0.000134768
20 *129:26 *1085:A0 0.000865217
21 *237:45 *973:A1 0.000633141
22 *237:45 *262:12 0.000978529
23 *251:6 *973:A1 6.10411e-05
24 *251:16 *973:A1 4.10843e-05
25 *257:14 *973:A1 9.34504e-05
*RES
1 *1157:Q *262:12 28.9071 
2 *262:12 *1085:A0 31.2821 
3 *262:12 *973:A1 45.7821 
*END

*D_NET *263 0.0209854
*CONN
*I *1087:A0 I *D sky130_fd_sc_hd__mux2_1
*I *986:A1 I *D sky130_fd_sc_hd__a21o_1
*I *999:A1 I *D sky130_fd_sc_hd__a21oi_1
*I *1158:Q O *D sky130_fd_sc_hd__dfxtp_1
*CAP
1 *1087:A0 0.000317941
2 *986:A1 0.000826305
3 *999:A1 9.99412e-05
4 *1158:Q 0.000945705
5 *263:50 0.000957921
6 *263:44 0.00300759
7 *263:18 0.00423956
8 *1087:A0 *1089:A0 0
9 *1087:A0 *1098:A1 9.60337e-06
10 *263:44 *268:30 0.00118347
11 *972:B1 *263:44 0.000723384
12 *982:A *263:18 0.000140243
13 *986:B1 *986:A1 0.000155628
14 *986:B1 *999:A1 1.02821e-05
15 *986:B1 *263:50 2.95642e-05
16 *999:A2 *999:A1 3.45371e-05
17 *999:B1 *999:A1 4.05828e-05
18 *1070:B1 *263:18 5.20751e-05
19 *1143:A *986:A1 7.22263e-05
20 *39:28 *263:44 2.83129e-05
21 *41:20 *263:44 0.00105893
22 *50:18 *263:44 0.000659698
23 *56:22 *263:50 4.22135e-06
24 *64:32 *263:44 8.85689e-05
25 *76:32 *263:44 0.00102898
26 *81:72 *263:44 0.000157816
27 *85:63 *1087:A0 8.25114e-05
28 *85:63 *263:18 3.97677e-05
29 *101:26 *263:44 9.62329e-05
30 *104:10 *263:18 0.000178425
31 *108:49 *263:44 0.000451113
32 *113:16 *263:44 0.000198801
33 *121:18 *263:18 0.00022197
34 *122:62 *1087:A0 0.000351097
35 *124:38 *999:A1 2.19603e-05
36 *125:32 *986:A1 0.000681248
37 *138:24 *999:A1 7.12022e-05
38 *167:32 *263:18 0.000510995
39 *167:38 *1087:A0 0.000175892
40 *167:38 *263:18 0.0010135
41 *174:29 *263:44 0.000662984
42 *179:34 *263:44 2.24813e-05
43 *193:10 *1087:A0 7.23248e-05
44 *198:28 *263:44 1.68854e-05
45 *201:80 *263:18 8.43535e-06
46 *201:90 *263:18 0.000112952
47 *208:8 *263:18 2.93863e-05
48 *218:16 *1087:A0 5.29794e-05
49 *226:30 *1087:A0 2.11419e-05
50 *257:49 *263:50 1.80461e-05
*RES
1 *1158:Q *263:18 29.7643 
2 *263:18 *263:44 49.9049 
3 *263:44 *263:50 8.49036 
4 *263:50 *999:A1 12.3714 
5 *263:50 *986:A1 21.0679 
6 *263:18 *1087:A0 26.2643 
*END

*D_NET *264 0.00997857
*CONN
*I *1089:A0 I *D sky130_fd_sc_hd__mux2_1
*I *1022:A1_N I *D sky130_fd_sc_hd__a2bb2o_2
*I *1159:Q O *D sky130_fd_sc_hd__dfxtp_1
*CAP
1 *1089:A0 0.0022398
2 *1022:A1_N 1.26062e-05
3 *1159:Q 0.000122117
4 *264:10 0.00237453
5 *1089:A0 *1054:A 4.60232e-06
6 *1089:A0 *1098:A1 7.95854e-06
7 *1015:A *1089:A0 0.00039512
8 *1087:A0 *1089:A0 0
9 *1089:A1 *1089:A0 7.57394e-05
10 *46:20 *1089:A0 0
11 *97:43 *1089:A0 2.11165e-05
12 *110:53 *1022:A1_N 3.28686e-05
13 *145:75 *1089:A0 0.000179795
14 *145:75 *264:10 0.000136388
15 *146:26 *1089:A0 6.38111e-05
16 *161:30 *264:10 5.49544e-05
17 *168:49 *1089:A0 8.38052e-05
18 *170:35 *1022:A1_N 1.59935e-05
19 *174:57 *1089:A0 7.69791e-05
20 *174:73 *1089:A0 0.000668752
21 *174:73 *264:10 0.000136388
22 *185:55 *1089:A0 0.00261301
23 *211:18 *1089:A0 0.000109585
24 *219:20 *1089:A0 1.00887e-05
25 *226:30 *1089:A0 0.000542564
*RES
1 *1159:Q *264:10 16.2821 
2 *264:10 *1022:A1_N 14.1304 
3 *264:10 *1089:A0 40.7225 
*END

*D_NET *265 0.0229972
*CONN
*I *1041:A0 I *D sky130_fd_sc_hd__mux2_1
*I *1091:A0 I *D sky130_fd_sc_hd__mux2_1
*I *1160:Q O *D sky130_fd_sc_hd__dfxtp_1
*CAP
1 *1041:A0 0.00371985
2 *1091:A0 0.00126321
3 *1160:Q 0.000440473
4 *265:16 0.00542353
5 *956:A *1041:A0 2.46649e-05
6 *956:A *265:16 2.6847e-05
7 *981:A3 *1091:A0 0.000219966
8 *981:B1 *265:16 4.98394e-05
9 *1009:A2 *1041:A0 2.35215e-05
10 *1023:A0 *265:16 9.14771e-06
11 *1032:B1 *1041:A0 0.000193979
12 *1056:A1 *1041:A0 7.82935e-05
13 *1091:A1 *1091:A0 5.49544e-05
14 *1156:A *1091:A0 5.33005e-05
15 *1183:RESET_B *265:16 0
16 *1185:A *1041:A0 0.00029943
17 *19:12 *1091:A0 0.00167913
18 *42:10 *1091:A0 0.00175077
19 *63:30 *1041:A0 0.0030819
20 *63:30 *1091:A0 4.65519e-05
21 *64:32 *1041:A0 4.24353e-05
22 *71:14 *1041:A0 8.51349e-05
23 *90:70 *1041:A0 0.000165185
24 *93:22 *265:16 3.69047e-06
25 *95:18 *1041:A0 2.86184e-05
26 *95:18 *265:16 9.15186e-06
27 *112:41 *1041:A0 7.29646e-05
28 *115:42 *265:16 1.8995e-06
29 *120:26 *265:16 2.51133e-05
30 *136:24 *1041:A0 0.000253737
31 *162:28 *265:16 7.69776e-06
32 *178:18 *1041:A0 4.17137e-05
33 *179:34 *1041:A0 0.00245297
34 *200:30 *1041:A0 0.000212164
35 *210:26 *1041:A0 0.000363675
36 *212:32 *1041:A0 9.23226e-05
37 *218:16 *1041:A0 5.49995e-05
38 *219:20 *1091:A0 0
39 *221:43 *1091:A0 0.000284297
40 *233:41 *1041:A0 5.13086e-05
41 *233:41 *265:16 6.96758e-06
42 *234:16 *1041:A0 8.96104e-05
43 *238:39 *1091:A0 0
44 *238:70 *1041:A0 0.000187336
45 *239:39 *1091:A0 2.20111e-05
46 *249:33 *265:16 0
47 *255:71 *265:16 2.88018e-06
*RES
1 *1160:Q *265:16 22.0263 
2 *265:16 *1091:A0 41.5634 
3 *265:16 *1041:A0 31.2142 
*END

*D_NET *266 0.0239373
*CONN
*I *1098:A1 I *D sky130_fd_sc_hd__o21ai_2
*I *1103:A0 I *D sky130_fd_sc_hd__mux2_1
*I *1161:Q O *D sky130_fd_sc_hd__dfxtp_1
*CAP
1 *1098:A1 0.00421559
2 *1103:A0 0.0019919
3 *1161:Q 6.89259e-05
4 *266:10 0.00627641
5 *1098:A1 *1054:A 0.000953892
6 *1098:A1 *271:43 0.000159062
7 *981:A3 *1103:A0 0.000591453
8 *1014:B *1098:A1 0.000179039
9 *1087:A0 *1098:A1 9.60337e-06
10 *1089:A0 *1098:A1 7.95854e-06
11 *1103:A1 *1103:A0 2.59355e-05
12 *1124:A1 *1103:A0 0.000726257
13 *1142:B *1098:A1 0
14 *1142:B *1103:A0 9.14503e-05
15 *1145:A *1103:A0 0.000606665
16 *46:20 *1098:A1 0.000179319
17 *72:12 *1098:A1 6.91961e-05
18 *72:12 *1103:A0 0.000280845
19 *83:20 *1098:A1 7.97272e-05
20 *101:26 *1103:A0 4.65519e-05
21 *109:40 *1103:A0 0.000370966
22 *140:12 *1103:A0 2.11419e-05
23 *153:18 *1098:A1 0.000238783
24 *154:18 *1098:A1 2.48858e-05
25 *179:34 *1103:A0 0.000213017
26 *190:30 *1098:A1 2.63501e-05
27 *193:10 *1098:A1 2.11419e-05
28 *200:30 *1098:A1 0.00116381
29 *201:116 *266:10 5.20751e-05
30 *211:18 *1098:A1 0.000364164
31 *215:12 *1103:A0 1.94945e-05
32 *219:20 *1103:A0 0.000156857
33 *221:43 *1103:A0 0.000202565
34 *226:30 *1098:A1 0.00438669
35 *239:39 *1103:A0 0.000115624
*RES
1 *1161:Q *266:10 15.175 
2 *266:10 *1103:A0 45.473 
3 *266:10 *1098:A1 38.6524 
*END

*D_NET *267 0.0155101
*CONN
*I *952:B_N I *D sky130_fd_sc_hd__and4bb_1
*I *1144:A0 I *D sky130_fd_sc_hd__mux2_1
*I *1177:Q O *D sky130_fd_sc_hd__dfxtp_1
*CAP
1 *952:B_N 0
2 *1144:A0 0
3 *1177:Q 0.00145603
4 *267:40 0.00175993
5 *267:26 0.00262701
6 *267:14 0.00232311
7 *952:D *267:26 5.33005e-05
8 *953:C1 *267:26 0.000180072
9 *1020:A *267:26 0.000388927
10 *1041:S *267:14 8.60798e-05
11 *1055:A2 *267:40 0.000385317
12 *1055:B1 *267:40 0.000385317
13 *1097:A2 *267:14 8.64454e-05
14 *1098:B1 *267:26 0.000181114
15 *1124:A1 *267:40 7.67203e-05
16 *77:55 *267:40 0.00084047
17 *78:16 *267:14 9.41642e-05
18 *80:38 *267:14 0.000129811
19 *81:12 *267:14 2.11419e-05
20 *84:26 *267:14 0.000164395
21 *84:38 *267:14 0.00101056
22 *93:37 *267:40 0.000166303
23 *97:20 *267:40 4.38942e-05
24 *122:8 *267:40 1.07719e-05
25 *122:62 *267:40 5.20448e-05
26 *127:31 *267:14 0
27 *155:98 *267:14 0.000211645
28 *159:18 *267:14 4.58038e-06
29 *179:34 *267:14 6.82866e-05
30 *194:14 *267:14 0.00142384
31 *201:100 *267:40 6.51073e-05
32 *201:116 *267:40 1.00887e-05
33 *207:38 *267:40 6.05161e-06
34 *208:75 *267:26 0.000299197
35 *235:31 *267:14 0.000119316
36 *235:60 *267:14 0.000688139
37 *235:86 *267:40 9.08883e-05
*RES
1 *1177:Q *267:14 48.6214 
2 *267:14 *267:26 18.7679 
3 *267:26 *267:40 42.9286 
4 *267:40 *1144:A0 9.3 
5 *267:26 *952:B_N 9.3 
*END

*D_NET *268 0.00897389
*CONN
*I *1146:A0 I *D sky130_fd_sc_hd__mux2_1
*I *975:C I *D sky130_fd_sc_hd__and4b_1
*I *1178:Q O *D sky130_fd_sc_hd__dfxtp_1
*CAP
1 *1146:A0 0.000486892
2 *975:C 0
3 *1178:Q 0
4 *268:30 0.00120879
5 *268:6 0.00169568
6 *935:A *1146:A0 7.99093e-06
7 *972:B2 *268:30 9.00639e-05
8 *976:C1 *268:30 9.74017e-05
9 *1069:A *1146:A0 0.000302786
10 *1074:B1 *1146:A0 0.000219289
11 *1117:A *268:30 7.96587e-06
12 *1117:C *268:30 0.000119679
13 *41:20 *1146:A0 7.29646e-05
14 *41:20 *268:30 0.000170971
15 *55:14 *268:30 0.000878842
16 *64:32 *268:30 8.96293e-05
17 *77:131 *268:30 0.000157596
18 *77:145 *268:30 6.83862e-05
19 *81:72 *268:30 0.000163737
20 *83:94 *1146:A0 9.76028e-05
21 *84:46 *268:30 2.45288e-05
22 *112:18 *1146:A0 0.000760784
23 *174:6 *1146:A0 0.000374444
24 *179:34 *268:30 5.00194e-05
25 *198:28 *1146:A0 0.000196325
26 *198:28 *268:30 0.000342963
27 *223:54 *268:30 7.38942e-05
28 *237:53 *1146:A0 1.21258e-05
29 *257:49 *268:30 1.90656e-05
30 *263:44 *268:30 0.00118347
*RES
1 *1178:Q *268:6 13.8 
2 *268:6 *268:30 41.0966 
3 *268:30 *975:C 9.3 
4 *268:6 *1146:A0 27.4607 
*END

*D_NET *269 0.022002
*CONN
*I *1148:A0 I *D sky130_fd_sc_hd__mux2_1
*I *1007:C I *D sky130_fd_sc_hd__and4b_1
*I *1179:Q O *D sky130_fd_sc_hd__dfxtp_1
*CAP
1 *1148:A0 0.00225448
2 *1007:C 3.66748e-05
3 *1179:Q 0.00231907
4 *269:26 0.00444844
5 *269:8 0.00447635
6 *1148:A0 *1054:A 0
7 *952:D *1148:A0 9.7196e-05
8 *953:C1 *1148:A0 0.000144583
9 *1009:A2 *269:26 0.000809658
10 *1011:A1 *269:26 3.55573e-05
11 *1011:A2 *269:26 5.02751e-05
12 *1020:A *1148:A0 0
13 *1027:B *269:26 0.000847874
14 *1038:B *1148:A0 0.000788227
15 *1044:B *269:8 0.000121926
16 *1048:A *1148:A0 4.16953e-05
17 *1078:A3 *1148:A0 0
18 *1164:D *269:8 0.0011309
19 *44:22 *269:26 9.07601e-05
20 *49:45 *269:26 0.000222828
21 *64:32 *1007:C 4.86178e-05
22 *64:68 *269:26 0.000304505
23 *83:10 *1148:A0 0.000249428
24 *83:20 *1148:A0 6.28948e-05
25 *83:30 *1007:C 2.22043e-05
26 *83:61 *1007:C 2.06178e-05
27 *84:81 *269:26 0.000278005
28 *85:63 *1148:A0 4.98422e-05
29 *95:73 *269:26 0.00073611
30 *97:20 *1148:A0 3.84377e-05
31 *101:26 *269:26 0.000218955
32 *141:18 *1148:A0 2.7999e-05
33 *141:36 *269:26 0.000102075
34 *155:34 *269:26 0.000131473
35 *157:18 *269:26 0.000281409
36 *166:14 *269:26 8.6229e-06
37 *168:20 *1148:A0 4.86178e-05
38 *178:18 *1148:A0 0.00012023
39 *178:18 *269:26 5.14757e-05
40 *204:28 *1148:A0 0.000113877
41 *205:57 *269:8 0.000543394
42 *252:48 *1007:C 2.69931e-05
43 *259:14 *269:26 0.000112307
44 *259:50 *269:26 0.000487401
*RES
1 *1179:Q *269:8 44.7286 
2 *269:8 *269:26 30.655 
3 *269:26 *1007:C 20.9798 
4 *269:26 *1148:A0 32.5258 
*END

*D_NET *270 0.0157911
*CONN
*I *1150:A0 I *D sky130_fd_sc_hd__mux2_1
*I *1003:C I *D sky130_fd_sc_hd__and4b_1
*I *1180:Q O *D sky130_fd_sc_hd__dfxtp_1
*CAP
1 *1150:A0 0
2 *1003:C 0.00142824
3 *1180:Q 0.00126329
4 *270:30 0.00288966
5 *270:10 0.00272471
6 *987:A1 *270:30 0.000774323
7 *987:A2 *270:30 9.58126e-05
8 *1011:A2 *1003:C 0.00011968
9 *1018:A *1003:C 0.000572164
10 *1039:A1 *1003:C 0.000261799
11 *1085:A1 *270:30 0.000137561
12 *1088:A *1003:C 0.000217848
13 *1132:A *270:10 1.29975e-05
14 *32:34 *270:30 2.03997e-05
15 *32:64 *270:30 0.000142592
16 *43:36 *270:10 0.00148018
17 *93:53 *1003:C 5.60201e-05
18 *96:42 *270:10 0.000168233
19 *97:43 *270:10 7.58841e-05
20 *98:42 *270:10 8.40344e-05
21 *103:32 *270:30 7.3475e-05
22 *121:85 *270:30 8.50349e-06
23 *145:47 *1003:C 0.000117856
24 *145:75 *1003:C 9.41642e-05
25 *167:10 *270:10 0.000249588
26 *171:40 *1003:C 0.000115556
27 *185:55 *270:10 0.00158903
28 *201:16 *270:30 0.000206852
29 *201:33 *270:30 0
30 *218:16 *1003:C 0.000135028
31 *248:23 *1003:C 2.75856e-05
32 *255:71 *270:10 0.00053267
33 *258:22 *1003:C 5.33005e-05
34 *258:22 *270:30 6.20244e-05
*RES
1 *1180:Q *270:10 46.8536 
2 *270:10 *270:30 33.4286 
3 *270:30 *1003:C 39.6571 
4 *270:30 *1150:A0 9.3 
*END

*D_NET *271 0.0245388
*CONN
*I *1054:A I *D sky130_fd_sc_hd__or2_1
*I *1152:A0 I *D sky130_fd_sc_hd__mux2_1
*I *1014:A I *D sky130_fd_sc_hd__nor2_1
*I *1181:Q O *D sky130_fd_sc_hd__dfxtp_1
*CAP
1 *1054:A 0.00127573
2 *1152:A0 0.000309075
3 *1014:A 3.34735e-05
4 *1181:Q 0.000923065
5 *271:43 0.00275933
6 *271:24 0.00167836
7 *271:20 0.00139343
8 *968:A *271:43 6.92966e-06
9 *968:B *271:43 2.79421e-05
10 *977:A_N *1054:A 4.58194e-05
11 *1014:B *271:43 0.0015676
12 *1020:A *1054:A 8.19176e-05
13 *1040:A0 *271:20 0.00137004
14 *1061:A2 *271:24 0.000189774
15 *1076:A3 *271:20 1.28171e-05
16 *1089:A0 *1054:A 4.60232e-06
17 *1098:A1 *1054:A 0.000953892
18 *1098:A1 *271:43 0.000159062
19 *1103:S *271:20 0.000127484
20 *1107:A1 *1054:A 2.60403e-05
21 *1107:S *1054:A 3.81752e-05
22 *1107:S *1152:A0 0.000486915
23 *1148:A0 *1054:A 0
24 *1148:S *1152:A0 0.000207021
25 *1156:A *271:20 0.000415976
26 *30:14 *1054:A 4.47024e-05
27 *50:8 *1054:A 0.00123628
28 *58:28 *271:43 0.000190032
29 *83:20 *1054:A 0.000626001
30 *101:26 *271:20 0.000126606
31 *106:65 *271:43 0.000367628
32 *106:80 *271:43 1.02301e-05
33 *107:12 *271:43 0.000444925
34 *116:8 *1054:A 0.000647945
35 *122:37 *1054:A 8.34937e-05
36 *153:6 *271:43 0.000176869
37 *153:45 *271:43 0.000560888
38 *173:38 *271:20 2.69934e-05
39 *173:38 *271:24 8.42341e-05
40 *174:45 *1054:A 0.000175299
41 *174:73 *1054:A 2.45832e-05
42 *190:30 *271:20 0.000420301
43 *190:30 *271:24 0.000120878
44 *200:30 *1054:A 0.000167456
45 *201:90 *1054:A 0
46 *201:100 *1054:A 0.00022197
47 *201:100 *271:43 0.00129223
48 *208:75 *1054:A 6.30931e-05
49 *208:75 *271:43 0.000407461
50 *211:18 *271:24 0.000492463
51 *229:14 *271:20 0
52 *236:194 *1054:A 0.000209534
53 *236:194 *271:43 0.00047759
54 *238:12 *271:20 0.000507144
55 *238:12 *271:24 0.00123751
*RES
1 *1181:Q *271:20 45.5372 
2 *271:20 *271:24 22.3839 
3 *271:24 *1014:A 9.83571 
4 *271:24 *271:43 40.4643 
5 *271:43 *1152:A0 25.1036 
6 *271:43 *1054:A 48.3596 
*END
